#----------/Base Parameter/----------#
  SYSTEM = AUTO
  PREC = Accurate
  ISTART = 0
  ENCUT = 400.0
  NELM = 150
  NELMIN = 5
  EDIFF = 0.0001
  EDIFFG = -0.05
  ISPIN = 2
  LWAVE = .FALSE.
  NPAR = 4
  IDIPOL = 3
  LDIPOL = .TRUE.
#----------/SCF Parameter/----------#
  AMIX = 0.4
  BMIX = 0.2
  AMIX_MAG = 0.8
  BMIX_MAG = 0.0001
#----------/Optimize Parameter/----------#
  IBRION = 2
  NSW = 500
  ISIF = 2
#----------/Charge Parameter/----------#
  LCHARG = .FALSE.
  ALGO = All
  ISMEAR = 0
  SIGMA = 0.05
#----------/+U Parameter/----------#
  LDAU = .TRUE.
  LDAUTYPE = 2
  LDAUL = -1  -1
  LDAUU = 0.0  0.0
  LDAUJ = 0.0  0.0
  LMAXMIX = 4
