Ca1 Ce21 H4 C1 O43
1.0
7.707464 0.000000 0.000000
0.000000 7.707464 0.000000
0.000000 0.000000 28.350000
H C O Ca Ce
4 1 43 1 21
Selective dynamics
direct
0.035688 0.871096 0.540025 T T T H
0.636195 0.730200 0.593360 T T T H
0.615033 0.970209 0.591951 T T T H
0.849381 0.809797 0.606598 T T T H
0.734974 0.828474 0.583600 T T T C
0.470622 0.126457 0.044041 F F F O
0.470618 0.617221 0.044047 F F F O
0.219999 0.371797 0.044486 F F F O
0.721265 0.371796 0.044490 F F F O
0.176621 0.871786 0.055711 F F F O
0.764625 0.871783 0.055712 F F F O
0.970600 0.121453 0.135734 F F F O
0.970602 0.621712 0.135736 F F F O
0.470600 0.117715 0.141281 F F F O
0.470602 0.625427 0.141273 F F F O
0.718120 0.371650 0.143077 F F F O
0.223063 0.371651 0.143073 F F F O
0.223751 0.871651 0.147543 F F F O
0.717433 0.871648 0.147548 F F F O
0.970496 0.122039 0.237534 F F F O
0.970522 0.620431 0.237528 F F F O
0.219090 0.371034 0.239679 F F F O
0.722023 0.371020 0.239692 F F F O
0.470556 0.122883 0.239944 F F F O
0.470551 0.619581 0.239931 F F F O
0.218698 0.871059 0.241478 F F F O
0.722409 0.871038 0.241495 F F F O
0.220490 0.871663 0.336355 T T T O
0.723145 0.872369 0.337671 T T T O
0.221034 0.372325 0.335548 T T T O
0.470884 0.122841 0.337415 T T T O
0.971705 0.621909 0.338109 T T T O
0.471462 0.622131 0.338208 T T T O
0.722402 0.371630 0.336454 T T T O
0.972039 0.122465 0.338569 T T T O
0.226184 0.881919 0.430958 T T T O
0.722293 0.872625 0.434923 T T T O
0.223388 0.370447 0.430364 T T T O
0.723799 0.375159 0.432715 T T T O
0.968320 0.624069 0.437650 T T T O
0.473770 0.125700 0.435499 T T T O
0.476278 0.625297 0.438927 T T T O
0.974818 0.125274 0.440324 T T T O
0.774566 0.841678 0.535994 T T T O
0.157396 0.879927 0.529655 T T T O
0.461344 0.103632 0.536989 T T T O
0.226571 0.387211 0.530905 T T T O
0.675219 0.413167 0.532961 T T T O
0.217746 0.627696 0.478439 T T T Ca
0.470637 0.371856 0.010952 F F F Ce
0.227834 0.110087 0.093458 F F F Ce
0.713391 0.110082 0.093462 F F F Ce
0.227808 0.633397 0.093452 F F F Ce
0.713417 0.633399 0.093455 F F F Ce
0.970569 0.371406 0.188414 F F F Ce
0.470580 0.371407 0.190684 F F F Ce
0.970565 0.871413 0.190890 F F F Ce
0.470582 0.871412 0.193593 F F F Ce
0.219105 0.122501 0.288481 F F F Ce
0.721916 0.122448 0.288501 F F F Ce
0.219104 0.619051 0.288474 F F F Ce
0.721948 0.619035 0.288493 F F F Ce
0.470962 0.873676 0.385609 T T T Ce
0.974815 0.874509 0.387055 T T T Ce
0.469828 0.373567 0.385538 T T T Ce
0.975156 0.372135 0.386512 T T T Ce
0.723021 0.620394 0.476947 T T T Ce
0.713554 0.123686 0.484957 T T T Ce
0.229058 0.125619 0.480604 T T T Ce
0.442988 0.345992 0.575591 T T T Ce
