Ce16 H2 O34
1.0
7.707460 0.000000 0.000000
0.000000 7.707460 0.000000
0.000000 0.000000 22.900000
H O Ce
2 34 16
Selective dynamics
direct
0.562810 0.140647 0.519658 T T T H
0.848211 0.639024 0.480141 T T T H
0.057790 0.127767 0.009539 F F F O
0.557767 0.127775 0.009521 F F F O
0.057788 0.627794 0.009528 F F F O
0.557772 0.627808 0.009516 F F F O
0.807784 0.377697 0.107994 F F F O
0.307572 0.377701 0.107996 F F F O
0.807774 0.877703 0.108008 F F F O
0.307579 0.877708 0.108013 F F F O
0.557681 0.127640 0.123884 F F F O
0.057710 0.127609 0.124005 F F F O
0.057721 0.627659 0.123978 F F F O
0.557690 0.627649 0.123886 F F F O
0.557086 0.127460 0.237707 F F F O
0.057262 0.127332 0.238060 F F F O
0.807595 0.377283 0.237829 F F F O
0.307268 0.377262 0.237900 F F F O
0.057491 0.627532 0.237952 F F F O
0.557298 0.627445 0.237765 F F F O
0.307264 0.877325 0.237961 F F F O
0.807555 0.877269 0.237843 F F F O
0.553801 0.632012 0.352800 T T T O
0.057401 0.125110 0.356092 T T T O
0.309642 0.373512 0.355672 T T T O
0.557144 0.123559 0.354938 T T T O
0.064017 0.627790 0.356324 T T T O
0.809789 0.876856 0.362616 T T T O
0.808149 0.382113 0.364855 T T T O
0.304978 0.877132 0.367391 T T T O
0.157732 0.095286 0.478739 T T T O
0.622849 0.655433 0.465945 T T T O
0.308913 0.429532 0.467212 T T T O
0.602249 0.130329 0.466309 T T T O
0.966672 0.115834 0.475975 T T T O
0.975658 0.632274 0.471732 T T T O
0.307704 0.127711 0.055813 F F F Ce
0.807817 0.127710 0.055809 F F F Ce
0.307719 0.627749 0.055806 F F F Ce
0.807810 0.627742 0.055802 F F F Ce
0.557499 0.377593 0.177448 F F F Ce
0.057598 0.377502 0.177559 F F F Ce
0.057632 0.877598 0.177570 F F F Ce
0.557477 0.877551 0.177462 F F F Ce
0.307248 0.127480 0.298017 T T T Ce
0.307155 0.626095 0.297109 T T T Ce
0.808917 0.624856 0.298638 T T T Ce
0.807636 0.131107 0.299050 T T T Ce
0.052346 0.877593 0.417166 T T T Ce
0.561872 0.877138 0.416359 T T T Ce
0.545322 0.398345 0.419829 T T T Ce
0.076563 0.374654 0.421160 T T T Ce
