H    O    Ce
   1.00000000000000     
  11.5611999999999995   0.0000000000000000   0.0000000000000000
  -5.7805999999999997  10.0122929000000003   0.0000000000000000
   0.0000000000000000   0.0000000000000000  26.0129599999999996
H    O    Ce
2  72  36  
Selective dynamics
Direct
  0.4944506990798292  0.5897559735246332  0.5105262236073490 T T T
  0.4040406716710284  0.5445068024196821  0.4961394045257589 T T T
  0.1097539581927478  0.0639520865293761  0.0259128958921266 F F F
  0.4430870831929923  0.0639520865293761  0.0259128958921266 F F F
  0.7764208331928657  0.0639520865293761  0.0259128958921266 F F F
  0.1097539581927583  0.3972858365292632  0.0259128958921266 F F F
  0.4430870831929924  0.3972858365292632  0.0259128958921266 F F F
  0.7764208331928659  0.3972858365292632  0.0259128958921266 F F F
  0.1097539581927617  0.7306189615295214  0.0259128958921266 F F F
  0.4430870831930058  0.7306189615295214  0.0259128958921266 F F F
  0.7764208331928659  0.7306189615295214  0.0259128958921266 F F F
  0.3319760415263744  0.1750631281960044  0.0877169074784945 F F F
  0.6653091665262497  0.1750631281960044  0.0877169074784945 F F F
  0.9986429165261298  0.1750631281960044  0.0877169074784945 F F F
  0.3319760415263746  0.5083968781958749  0.0877169074784945 F F F
  0.6653091665262495  0.5083968781958749  0.0877169074784945 F F F
  0.9986429165261300  0.5083968781958749  0.0877169074784945 F F F
  0.3319760415263761  0.8417300031961366  0.0877169074784945 F F F
  0.6653091665262505  0.8417300031961366  0.0877169074784945 F F F
  0.9986429165261308  0.8417300031961366  0.0877169074784945 F F F
  0.2208649998593800  0.2861741698626379  0.1472711259531181 F F F
  0.5541981248596322  0.2861741698626379  0.1472711259531181 F F F
  0.8875318748594909  0.2861741698626379  0.1472711259531181 F F F
  0.2208649998593790  0.6195079198625261  0.1472711259531181 F F F
  0.5541981248596322  0.6195079198625261  0.1472711259531181 F F F
  0.8875318748595054  0.6195079198625261  0.1472711259531181 F F F
  0.2208649998593978  0.9528410448627936  0.1472711259531181 F F F
  0.5541981248596484  0.9528410448627936  0.1472711259531181 F F F
  0.8875318748595133  0.9528410448627936  0.1472711259531181 F F F
  0.1097539581927478  0.0639520865293761  0.2096169721011307 F F F
  0.4430870831929923  0.0639520865293761  0.2096169721011307 F F F
  0.7764208331928657  0.0639520865293761  0.2096169721011307 F F F
  0.1097539581927583  0.3972858365292632  0.2096169721011307 F F F
  0.4430870831929924  0.3972858365292632  0.2096169721011307 F F F
  0.7764208331928659  0.3972858365292632  0.2096169721011307 F F F
  0.1097539581927617  0.7306189615295214  0.2096169721011307 F F F
  0.4430870831930058  0.7306189615295214  0.2096169721011307 F F F
  0.7764208331928659  0.7306189615295214  0.2096169721011307 F F F
  0.3325949134091342  0.1753534928994935  0.2714915088360290 T T T
  0.6642155279021941  0.1744924226489517  0.2720611723625410 T T T
  0.9987581065166360  0.1749506302163132  0.2713336351809362 T T T
  0.3323031002518060  0.5085345818626072  0.2718892654668121 T T T
  0.6651206047808809  0.5078115273954731  0.2714026027444609 T T T
  0.9987693258974956  0.5085948169668368  0.2713327300337706 T T T
  0.3325782538067824  0.8420152721268557  0.2714944678255656 T T T
  0.6651300087481611  0.8421068869180310  0.2714011520764628 T T T
  0.9987822044253862  0.8417858429452573  0.2712883911673535 T T T
  0.2210236819465033  0.2852219224218193  0.3339297023027885 T T T
  0.5527057419464441  0.2875531019406121  0.3349023011619618 T T T
  0.8885999450561893  0.2866882174018374  0.3334409583588941 T T T
  0.2210202218504155  0.6205471176555372  0.3339260447055103 T T T
  0.5565717081345423  0.6206726631850952  0.3335993450051324 T T T
  0.8872155228879520  0.6192261668930119  0.3337038065769390 T T T
  0.2213151536913549  0.9530400286250192  0.3337622907065989 T T T
  0.5526915831455073  0.9498958995215144  0.3349034088364005 T T T
  0.8872117658851084  0.9527577954589784  0.3337113838901437 T T T
  0.1091000600953724  0.0627544645547376  0.3932630289796519 T T T
  0.4437327606213612  0.0642343460565444  0.3937224823421531 T T T
  0.7771116647909029  0.0663469977000140  0.3930343607967146 T T T
  0.1102883834517403  0.3974998172210208  0.3931211882094252 T T T
  0.4410877055024838  0.4021698270948347  0.3959959302784798 T T T
  0.7771209889493167  0.3955378415889169  0.3930363054621098 T T T
  0.1090812746163166  0.7310713855077982  0.3932680149330241 T T T
  0.4410742838150763  0.7236489440439391  0.3959936699303312 T T T
  0.7782762638696261  0.7315023120375729  0.3940698852607057 T T T
  0.3309852535961855  0.1740082546068134  0.4554265441037547 T T T
  0.6649558160967450  0.1748445970998724  0.4557186105984680 T T T
  0.9980604972990864  0.1738732506341573  0.4554384485412029 T T T
  0.6701061925966620  0.5071700127040007  0.4545882299334660 T T T
  0.9980379603460772  0.5088731421592462  0.4554440244432452 T T T
  0.3309794446176063  0.8416932449711906  0.4554260529948535 T T T
  0.0003522701477287  0.8425445603901518  0.4559643971190804 T T T
  0.3060154459409321  0.4953954157962445  0.4635677950647964 T T T
  0.6701077443893088  0.8476729121388261  0.4545694746592411 T T T
  0.2208649998593800  0.2861741698626379  0.0564889430281283 F F F
  0.5541981248596322  0.2861741698626379  0.0564889430281283 F F F
  0.8875318748594909  0.2861741698626379  0.0564889430281283 F F F
  0.2208649998593790  0.6195079198625261  0.0564889430281283 F F F
  0.5541981248596322  0.6195079198625261  0.0564889430281283 F F F
  0.8875318748595054  0.6195079198625261  0.0564889430281283 F F F
  0.2208649998593978  0.9528410448627936  0.0564889430281283 F F F
  0.5541981248596484  0.9528410448627936  0.0564889430281283 F F F
  0.8875318748595133  0.9528410448627936  0.0564889430281283 F F F
  0.3319760415263744  0.1750631281960044  0.1787721420256290 F F F
  0.6653091665262497  0.1750631281960044  0.1787721420256290 F F F
  0.9986429165261298  0.1750631281960044  0.1787721420256290 F F F
  0.3319760415263746  0.5083968781958749  0.1787721420256290 F F F
  0.6653091665262495  0.5083968781958749  0.1787721420256290 F F F
  0.9986429165261300  0.5083968781958749  0.1787721420256290 F F F
  0.3319760415263761  0.8417300031961366  0.1787721420256290 F F F
  0.6653091665262505  0.8417300031961366  0.1787721420256290 F F F
  0.9986429165261308  0.8417300031961366  0.1787721420256290 F F F
  0.1100049269502004  0.0640090215845008  0.3020609392290548 T T T
  0.4425112074149620  0.0636404412276315  0.3026210919072112 T T T
  0.7765182852869819  0.0638524353095531  0.3024030396070608 T T T
  0.1099141902253544  0.3973403817686336  0.3024423624707532 T T T
  0.4431358392988256  0.3980405024279435  0.3030479995150152 T T T
  0.7765199891488854  0.3974490623436088  0.3024034498784552 T T T
  0.1100002135837565  0.7307619128457775  0.3020612729386580 T T T
  0.4431319441224343  0.7298579648345189  0.3030491813308068 T T T
  0.7764730618186608  0.7306269665911896  0.3021444764293063 T T T
  0.2173701179558759  0.2824932258251302  0.4251671640649224 T T T
  0.5542565168429756  0.2861674474813850  0.4250955959746587 T T T
  0.8871815827501244  0.2859569396358509  0.4244321773049798 T T T
  0.2173600869339390  0.6196030674713837  0.4251664268266058 T T T
  0.8887580949732913  0.6196268805521652  0.4247362308282830 T T T
  0.2206738612929113  0.9527028746668488  0.4250514670934313 T T T
  0.5542505597269990  0.9528151410008204  0.4250939870714372 T T T
  0.8887662395265524  0.9538678847771984  0.4247296915719069 T T T
  0.5623706019653312  0.6235570467345762  0.4261775565155898 T T T
