AutoCreatByScript: N O K Ti
   1.00000000000000
    10.2892150000000004    0.0000000000000000    0.0000000000000000
     0.0000000000000000    7.7573400000000001    0.0000000000000000
     0.0000000000000000    0.0000000000000000   28.7445599999999999
   N    O    K    Ti
     1    63     1    32
Selective dynamics
Direct
  0.4869802342080050  0.2271557455646587  0.4243259045889403   T   T   T
  0.2694806244551273  0.2272809232473847  0.0837413377928300   T   T   T
  0.2695592343717053  0.7272545363851464  0.0840814747961076   T   T   T
  0.7695653226822046  0.4773671613502017  0.0840387201440507   T   T   T
  0.7695666751872992  0.9771060839727710  0.0840383081664626   T   T   T
  0.0584841775561742  0.4773479784896679  0.1072680646965836   T   T   T
  0.5586820216316113  0.7272668783644392  0.1074297828779009   T   T   T
  0.0584866435714417  0.9771090627606043  0.1072670879194035   T   T   T
  0.5586310091987485  0.2272606821998124  0.1072654312190835   T   T   T
  0.9185092191561139  0.2272202627240887  0.1362760378827019   T   T   T
  0.4183599224819048  0.4773088120455995  0.1362188826690840   T   T   T
  0.4183534046996371  0.9772329967488886  0.1362134142738753   T   T   T
  0.9185375749736906  0.7272182995421588  0.1364615792258448   T   T   T
  0.1999749877521850  0.2272245257444254  0.1685505914477616   T   T   T
  0.2003239679614879  0.7272395120922042  0.1689764863915073   T   T   T
  0.7001021390336604  0.4772714468502599  0.1689410645339393   T   T   T
  0.7000998937546044  0.9772424152122952  0.1689410874602402   T   T   T
  0.4206000954898315  0.2272232554155451  0.2090015899755073   T   T   T
  0.9202237688387314  0.4770118724614960  0.2094682416590601   T   T   T
  0.4203714014563715  0.7272708407526878  0.2095834264204939   T   T   T
  0.9202225007457372  0.9774111619563257  0.2094695837497298   T   T   T
  0.2077946955895342  0.4773566953634472  0.2411673788614053   T   T   T
  0.2077926505885870  0.9770727911360595  0.2411712089171942   T   T   T
  0.7079500273329415  0.2272345296927796  0.2412189922664325   T   T   T
  0.7079251422189401  0.7272323273632892  0.2413732039320848   T   T   T
  0.0620403985651876  0.7272121814069195  0.2631849425310477   T   T   T
  0.5621658398488165  0.4772924371038343  0.2634468598223378   T   T   T
  0.5621712302710762  0.9771802304797887  0.2634508014852130   T   T   T
  0.0623401713828429  0.2272108506036474  0.2634222275151856   T   T   T
  0.3479347671506048  0.2272194756895942  0.2941602052641699   T   T   T
  0.8481384423083185  0.4770092930399557  0.2952303324661045   T   T   T
  0.3483575628323337  0.7272055366614509  0.2955389656638232   T   T   T
  0.8481330788298465  0.9774204669777262  0.2952311498000455   T   T   T
  0.5662324399822296  0.2272150375718240  0.3362575170962501   T   T   T
  0.0661795329167489  0.4795830657839204  0.3362348349877422   T   T   T
  0.0661750100905607  0.9748007469821189  0.3362360840067709   T   T   T
  0.5669506054301507  0.7272062363988141  0.3363884178644625   T   T   T
  0.8549016878735998  0.2271840889314589  0.3680125152773712   T   T   T
  0.3551087404313336  0.4768339286692083  0.3692483609014090   T   T   T
  0.3551025180629779  0.9775478551194183  0.3692474306841760   T   T   T
  0.8528581733015415  0.7271817315466507  0.3682504093525907   T   T   T
  0.7061588731685831  0.4767939519293094  0.3903771514546719   T   T   T
  0.2073270291276756  0.7271766987155033  0.3897988615237367   T   T   T
  0.7061546676418402  0.9775769486285100  0.3903749521854110   T   T   T
  0.2029017992839854  0.2271817809848784  0.3882479714954243   T   T   T
  0.9951021084976546  0.4767674360852467  0.4222041963292753   T   T   T
  0.4956768673789327  0.7271529916393149  0.4223018777512237   T   T   T
  0.9950982307352376  0.9775872792923153  0.4222057257917839   T   T   T
  0.2166975584454391  0.4752356258458192  0.4621584998476607   T   T   T
  0.2166935746991925  0.9790673775803782  0.4621624251021998   T   T   T
  0.7173190996179741  0.7271524266327276  0.4623400716479580   T   T   T
  0.7174729174655567  0.2271414816070916  0.4630133976457103   T   T   T
  0.0007025530751292  0.2271257613664730  0.4960595288407461   T   T   T
  0.9996293174266881  0.7271277252144799  0.4949310141456635   T   T   T
  0.4997523551375025  0.4766139068320854  0.4947613350550668   T   T   T
  0.4997579523753259  0.9776521826733244  0.4947672750638006   T   T   T
  0.3591857930673896  0.2271346573737674  0.5261270801239633   T   T   T
  0.3589364655360754  0.7271303485146632  0.5233729310068540   T   T   T
  0.8597116088520096  0.4777676598472382  0.5242113987109391   T   T   T
  0.8597042819781393  0.9764973248642619  0.5242097257003806   T   T   T
  0.1488556696291852  0.4773148704948937  0.5473484367825066   T   T   T
  0.1488603241242359  0.9769341853181501  0.5473509925752609   T   T   T
  0.6479468361067475  0.7270998511894362  0.5471854499854345   T   T   T
  0.6522525722337420  0.2271491961114194  0.5493983392267552   T   T   T
  0.1251034841934597  0.2271167188444849  0.6197419124983341   T   T   T
  0.1053054414159504  0.2272362491616136  0.1124007834947562   T   T   T
  0.6053917296811804  0.4773190468387938  0.1127911164235371   T   T   T
  0.1054034409075655  0.7272334572415318  0.1128584266339772   T   T   T
  0.6053913881748940  0.9771931223364163  0.1127909672756005   T   T   T
  0.8803880842588967  0.4771464730541339  0.1384207402106910   T   T   T
  0.3803223591656391  0.7272772351167589  0.1384479935686684   T   T   T
  0.8803892337539168  0.9772757366964626  0.1384203404251991   T   T   T
  0.3803988987687603  0.2272743797033456  0.1381849982645562   T   T   T
  0.7447707934893515  0.4772242848075763  0.2378434725842027   T   T   T
  0.2448891460349785  0.7272246427166280  0.2379195863325378   T   T   T
  0.7447696379047670  0.9772329522968590  0.2378437908207189   T   T   T
  0.2447588252484323  0.2272206668847545  0.2372433595758068   T   T   T
  0.0261597790427075  0.4771565499761294  0.2669623957013343   T   T   T
  0.5262020100640115  0.7272446480705028  0.2671561803760127   T   T   T
  0.0261571262375071  0.9772574396673335  0.2669637882021618   T   T   T
  0.5261351567725043  0.2272439403590525  0.2669040845894557   T   T   T
  0.8885721206569315  0.4767449424955075  0.3640123152502852   T   T   T
  0.8885693848345610  0.9776089724875874  0.3640132043091668   T   T   T
  0.3893574149045307  0.7271961003631446  0.3643993734451172   T   T   T
  0.3865368191103897  0.2271991895761616  0.3632776277686744   T   T   T
  0.1695460127893327  0.4769018755324623  0.3933260683141597   T   T   T
  0.1695432021417034  0.9774474876652448  0.3933268703499735   T   T   T
  0.6706445985692326  0.7271907080452849  0.3934188899995092   T   T   T
  0.6700656378337158  0.2271921898686173  0.3934917292956897   T   T   T
  0.5379784124146880  0.2271414278884194  0.4948218051437792   T   T   T
  0.0365528268403423  0.4771183451809407  0.4926542561630924   T   T   T
  0.0365526397522800  0.9771111734666960  0.4926566101364571   T   T   T
  0.5375544060907700  0.7271396777853241  0.4926222421722315   T   T   T
  0.3120727812903752  0.4768389443953964  0.5179864293678662   T   T   T
  0.3120743472181502  0.9774182005482430  0.5179881184631654   T   T   T
  0.8122184448567680  0.7271363613119277  0.5184715804867963   T   T   T
  0.8122360767901000  0.2271408108797246  0.5188161519261527   T   T   T

  0.00000000E+00  0.00000000E+00  0.00000000E+00
  0.00000000E+00  0.00000000E+00  0.00000000E+00
  0.00000000E+00  0.00000000E+00  0.00000000E+00
  0.00000000E+00  0.00000000E+00  0.00000000E+00
  0.00000000E+00  0.00000000E+00  0.00000000E+00
  0.00000000E+00  0.00000000E+00  0.00000000E+00
  0.00000000E+00  0.00000000E+00  0.00000000E+00
  0.00000000E+00  0.00000000E+00  0.00000000E+00
  0.00000000E+00  0.00000000E+00  0.00000000E+00
  0.00000000E+00  0.00000000E+00  0.00000000E+00
  0.00000000E+00  0.00000000E+00  0.00000000E+00
  0.00000000E+00  0.00000000E+00  0.00000000E+00
  0.00000000E+00  0.00000000E+00  0.00000000E+00
  0.00000000E+00  0.00000000E+00  0.00000000E+00
  0.00000000E+00  0.00000000E+00  0.00000000E+00
  0.00000000E+00  0.00000000E+00  0.00000000E+00
  0.00000000E+00  0.00000000E+00  0.00000000E+00
  0.00000000E+00  0.00000000E+00  0.00000000E+00
  0.00000000E+00  0.00000000E+00  0.00000000E+00
  0.00000000E+00  0.00000000E+00  0.00000000E+00
  0.00000000E+00  0.00000000E+00  0.00000000E+00
  0.00000000E+00  0.00000000E+00  0.00000000E+00
  0.00000000E+00  0.00000000E+00  0.00000000E+00
  0.00000000E+00  0.00000000E+00  0.00000000E+00
  0.00000000E+00  0.00000000E+00  0.00000000E+00
  0.00000000E+00  0.00000000E+00  0.00000000E+00
  0.00000000E+00  0.00000000E+00  0.00000000E+00
  0.00000000E+00  0.00000000E+00  0.00000000E+00
  0.00000000E+00  0.00000000E+00  0.00000000E+00
  0.00000000E+00  0.00000000E+00  0.00000000E+00
  0.00000000E+00  0.00000000E+00  0.00000000E+00
  0.00000000E+00  0.00000000E+00  0.00000000E+00
  0.00000000E+00  0.00000000E+00  0.00000000E+00
  0.00000000E+00  0.00000000E+00  0.00000000E+00
  0.00000000E+00  0.00000000E+00  0.00000000E+00
  0.00000000E+00  0.00000000E+00  0.00000000E+00
  0.00000000E+00  0.00000000E+00  0.00000000E+00
  0.00000000E+00  0.00000000E+00  0.00000000E+00
  0.00000000E+00  0.00000000E+00  0.00000000E+00
  0.00000000E+00  0.00000000E+00  0.00000000E+00
  0.00000000E+00  0.00000000E+00  0.00000000E+00
  0.00000000E+00  0.00000000E+00  0.00000000E+00
  0.00000000E+00  0.00000000E+00  0.00000000E+00
  0.00000000E+00  0.00000000E+00  0.00000000E+00
  0.00000000E+00  0.00000000E+00  0.00000000E+00
  0.00000000E+00  0.00000000E+00  0.00000000E+00
  0.00000000E+00  0.00000000E+00  0.00000000E+00
  0.00000000E+00  0.00000000E+00  0.00000000E+00
  0.00000000E+00  0.00000000E+00  0.00000000E+00
  0.00000000E+00  0.00000000E+00  0.00000000E+00
  0.00000000E+00  0.00000000E+00  0.00000000E+00
  0.00000000E+00  0.00000000E+00  0.00000000E+00
  0.00000000E+00  0.00000000E+00  0.00000000E+00
  0.00000000E+00  0.00000000E+00  0.00000000E+00
  0.00000000E+00  0.00000000E+00  0.00000000E+00
  0.00000000E+00  0.00000000E+00  0.00000000E+00
  0.00000000E+00  0.00000000E+00  0.00000000E+00
  0.00000000E+00  0.00000000E+00  0.00000000E+00
  0.00000000E+00  0.00000000E+00  0.00000000E+00
  0.00000000E+00  0.00000000E+00  0.00000000E+00
  0.00000000E+00  0.00000000E+00  0.00000000E+00
  0.00000000E+00  0.00000000E+00  0.00000000E+00
  0.00000000E+00  0.00000000E+00  0.00000000E+00
  0.00000000E+00  0.00000000E+00  0.00000000E+00
  0.00000000E+00  0.00000000E+00  0.00000000E+00
  0.00000000E+00  0.00000000E+00  0.00000000E+00
  0.00000000E+00  0.00000000E+00  0.00000000E+00
  0.00000000E+00  0.00000000E+00  0.00000000E+00
  0.00000000E+00  0.00000000E+00  0.00000000E+00
  0.00000000E+00  0.00000000E+00  0.00000000E+00
  0.00000000E+00  0.00000000E+00  0.00000000E+00
  0.00000000E+00  0.00000000E+00  0.00000000E+00
  0.00000000E+00  0.00000000E+00  0.00000000E+00
  0.00000000E+00  0.00000000E+00  0.00000000E+00
  0.00000000E+00  0.00000000E+00  0.00000000E+00
  0.00000000E+00  0.00000000E+00  0.00000000E+00
  0.00000000E+00  0.00000000E+00  0.00000000E+00
  0.00000000E+00  0.00000000E+00  0.00000000E+00
  0.00000000E+00  0.00000000E+00  0.00000000E+00
  0.00000000E+00  0.00000000E+00  0.00000000E+00
  0.00000000E+00  0.00000000E+00  0.00000000E+00
  0.00000000E+00  0.00000000E+00  0.00000000E+00
  0.00000000E+00  0.00000000E+00  0.00000000E+00
  0.00000000E+00  0.00000000E+00  0.00000000E+00
  0.00000000E+00  0.00000000E+00  0.00000000E+00
  0.00000000E+00  0.00000000E+00  0.00000000E+00
  0.00000000E+00  0.00000000E+00  0.00000000E+00
  0.00000000E+00  0.00000000E+00  0.00000000E+00
  0.00000000E+00  0.00000000E+00  0.00000000E+00
  0.00000000E+00  0.00000000E+00  0.00000000E+00
  0.00000000E+00  0.00000000E+00  0.00000000E+00
  0.00000000E+00  0.00000000E+00  0.00000000E+00
  0.00000000E+00  0.00000000E+00  0.00000000E+00
  0.00000000E+00  0.00000000E+00  0.00000000E+00
  0.00000000E+00  0.00000000E+00  0.00000000E+00
  0.00000000E+00  0.00000000E+00  0.00000000E+00
  0.00000000E+00  0.00000000E+00  0.00000000E+00
