AutoCreatByScript: H C N O Cu Ce
   1.00000000000000
    17.7829743399999991    0.0000000000000000    0.0000000000000000
    -8.8914871699999996   15.4005075399999996    0.0000000000000000
     0.0000000000000000    0.0000000000000000   21.2872308699999984
   H    C    N    O    Cu   Ce
    18    15     3     7   192     3
Selective dynamics
Direct
  0.6064569839477927  0.8930047002691380  0.4563485020531139   T   T   T
  0.3950358772375083  0.2577924542207427  0.4548483329504209   T   T   T
  0.8123519978323280  0.5837028656478964  0.4570711762810298   T   T   T
  0.0558829183996082  0.6049093366983659  0.4596530656737574   T   T   T
  0.6332500102827907  0.2679848659541137  0.4615409543172322   T   T   T
  0.8660711282844058  0.0879999895366716  0.4594092246278986   T   T   T
  0.5652928788445727  0.9698510201011543  0.5337036492586955   T   T   T
  0.8582530639760515  0.7043193516864708  0.5346848259157856   T   T   T
  0.1116623103527848  0.7255560374818532  0.5377527075444923   T   T   T
  0.4422154964228753  0.3771480228581303  0.5347311339232629   T   T   T
  0.4272593865550386  0.8326623308022656  0.5463506228686683   T   T   T
  0.8361561115964011  0.1738518766098244  0.5380839155945066   T   T   T
  0.6879932073540636  0.3821309208722963  0.5450273591067266   T   T   T
  0.4062987329421297  0.4960993228187491  0.5435266736604107   T   T   T
  0.2321714745732675  0.6037260256281852  0.5348389489225910   T   T   T
  0.6819427636466844  0.1170819901507879  0.5743634464131184   T   T   T
  0.0124115610567028  0.7797230565093159  0.5748282078375151   T   T   T
  0.5914992352242798  0.4401178113091044  0.5814461805456372   T   T   T
  0.6555359002804415  0.9568401216407436  0.4743067405553943   T   T   T
  0.4602823960807913  0.2886374981643783  0.4754565368069656   T   T   T
  0.8785610384957044  0.6177434541196096  0.4759341439327667   T   T   T
  0.0143376135806282  0.6296237860498685  0.4770556891866777   T   T   T
  0.5926846184342160  0.2934104111314245  0.4796770849494453   T   T   T
  0.8002394050255239  0.0651581784670614  0.4768031259128239   T   T   T
  0.6329611731654486  0.0000905949207735  0.5184039367222637   T   T   T
  0.9043174762779045  0.6844003401233406  0.5196460049127750   T   T   T
  0.0449270018307401  0.6965196342896741  0.5210460364138493   T   T   T
  0.7830299103609794  0.1122882636352246  0.5209710389460777   T   T   T
  0.4858459952257224  0.3533059867473156  0.5208671803333967   T   T   T
  0.6227527771902159  0.3570747890060357  0.5261047154604437   T   T   T
  0.6976446386472457  0.0802611312048788  0.5410623328892167   T   T   T
  0.9895632654855057  0.7257199982540843  0.5418053838955948   T   T   T
  0.5690837217782125  0.3887173421380506  0.5462172268188619   T   T   T
  0.5132066533948889  0.2603514772158475  0.4533738938154986   T   T   T
  0.7373442770851513  0.9896939219643204  0.4518735390406955   T   T   T
  0.9330053058934211  0.5918300602393090  0.4530977975241798   T   T   T
  0.3317917152696027  0.8032980687243565  0.4127226263473765   T   T   T
  0.1745677917475111  0.3950276941991081  0.4168268467815841   T   T   T
  0.6448805997505503  0.7097141592006010  0.4163536046345074   T   T   T
  0.2644417465458329  0.5993897731756894  0.4219700309800842   T   T   T
  0.3857341832847055  0.5196320972188183  0.4291888973809447   T   T   T
  0.4735884937074137  0.7392637409224869  0.4342275711758392   T   T   T
  0.3875012582898919  0.6330113355574771  0.5295885587001002   T   T   T
  0.1667222054250033  0.0556666334859983  0.0612101500530002   F   F   F
  0.6667222054250033  0.0556666334859983  0.0612101500530002   F   F   F
  0.4167222054250033  0.0556666334859983  0.0612101500530002   F   F   F
  0.9167222054250033  0.0556666334859983  0.0612101500530002   F   F   F
  0.3333888720920015  0.1389999668190001  0.0612101500530002   F   F   F
  0.8333888720920016  0.1389999668190001  0.0612101500530002   F   F   F
  0.0833888720920015  0.1389999668190001  0.0612101500530002   F   F   F
  0.5833888720920014  0.1389999668190001  0.0612101500530002   F   F   F
  0.7500555387579979  0.2223333001529965  0.0612101500530002   F   F   F
  0.0000555387579979  0.2223333001529965  0.0612101500530002   F   F   F
  0.5000555387579979  0.2223333001529965  0.0612101500530002   F   F   F
  0.2500555387579978  0.2223333001529965  0.0612101500530002   F   F   F
  0.1667222054250032  0.3056666334859982  0.0612101500530002   F   F   F
  0.6667222054250033  0.3056666334859982  0.0612101500530002   F   F   F
  0.4167222054250033  0.3056666334859982  0.0612101500530002   F   F   F
  0.9167222054250033  0.3056666334859982  0.0612101500530002   F   F   F
  0.0833888720920015  0.3889999668190000  0.0612101500530002   F   F   F
  0.5833888720920013  0.3889999668190000  0.0612101500530002   F   F   F
  0.3333888720920015  0.3889999668190000  0.0612101500530002   F   F   F
  0.8333888720920015  0.3889999668190000  0.0612101500530002   F   F   F
  0.0000555387579979  0.4723333001529965  0.0612101500530002   F   F   F
  0.5000555387579979  0.4723333001529965  0.0612101500530002   F   F   F
  0.2500555387579978  0.4723333001529965  0.0612101500530002   F   F   F
  0.7500555387579979  0.4723333001529965  0.0612101500530002   F   F   F
  0.4167222054250032  0.5556666334859981  0.0612101500530002   F   F   F
  0.9167222054250030  0.5556666334859981  0.0612101500530002   F   F   F
  0.1667222054250032  0.5556666334859981  0.0612101500530002   F   F   F
  0.6667222054250032  0.5556666334859981  0.0612101500530002   F   F   F
  0.3333888720920015  0.6389999668190000  0.0612101500530002   F   F   F
  0.8333888720920015  0.6389999668190000  0.0612101500530002   F   F   F
  0.0833888720920014  0.6389999668190000  0.0612101500530002   F   F   F
  0.5833888720920014  0.6389999668190000  0.0612101500530002   F   F   F
  0.2500555387579978  0.7223333001529963  0.0612101500530002   F   F   F
  0.7500555387579979  0.7223333001529963  0.0612101500530002   F   F   F
  0.0000555387579979  0.7223333001529963  0.0612101500530002   F   F   F
  0.5000555387579979  0.7223333001529963  0.0612101500530002   F   F   F
  0.1667222054250031  0.8056666334859981  0.0612101500530002   F   F   F
  0.6667222054250033  0.8056666334859981  0.0612101500530002   F   F   F
  0.4167222054250033  0.8056666334859981  0.0612101500530002   F   F   F
  0.9167222054250032  0.8056666334859981  0.0612101500530002   F   F   F
  0.0833888720920015  0.8889999668190000  0.0612101500530002   F   F   F
  0.5833888720920015  0.8889999668190000  0.0612101500530002   F   F   F
  0.3333888720920015  0.8889999668190000  0.0612101500530002   F   F   F
  0.8333888720920015  0.8889999668190000  0.0612101500530002   F   F   F
  0.0000555387579979  0.9723333001529963  0.0612101500530002   F   F   F
  0.5000555387579979  0.9723333001529963  0.0612101500530002   F   F   F
  0.2500555387579978  0.9723333001529963  0.0612101500530002   F   F   F
  0.7500555387579979  0.9723333001529963  0.0612101500530002   F   F   F
  0.0833888720920015  0.0556666334859983  0.1594325928390035   F   F   F
  0.5833888720920015  0.0556666334859983  0.1594325928390035   F   F   F
  0.3333888720920015  0.0556666334859983  0.1594325928390035   F   F   F
  0.8333888720920017  0.0556666334859983  0.1594325928390035   F   F   F
  0.0000555387579979  0.1389999668190001  0.1594325928390035   F   F   F
  0.5000555387579979  0.1389999668190001  0.1594325928390035   F   F   F
  0.2500555387579979  0.1389999668190001  0.1594325928390035   F   F   F
  0.7500555387579979  0.1389999668190001  0.1594325928390035   F   F   F
  0.6667222054250033  0.2223333001529965  0.1594325928390035   F   F   F
  0.4167222054250033  0.2223333001529965  0.1594325928390035   F   F   F
  0.9167222054250032  0.2223333001529965  0.1594325928390035   F   F   F
  0.1667222054250032  0.2223333001529965  0.1594325928390035   F   F   F
  0.3333888720920015  0.3056666334859982  0.1594325928390035   F   F   F
  0.8333888720920015  0.3056666334859982  0.1594325928390035   F   F   F
  0.0833888720920015  0.3056666334859982  0.1594325928390035   F   F   F
  0.5833888720920013  0.3056666334859982  0.1594325928390035   F   F   F
  0.2500555387579978  0.3889999668190000  0.1594325928390035   F   F   F
  0.7500555387579979  0.3889999668190000  0.1594325928390035   F   F   F
  0.0000555387579979  0.3889999668190000  0.1594325928390035   F   F   F
  0.5000555387579979  0.3889999668190000  0.1594325928390035   F   F   F
  0.1667222054250032  0.4723333001529965  0.1594325928390035   F   F   F
  0.6667222054250033  0.4723333001529965  0.1594325928390035   F   F   F
  0.4167222054250033  0.4723333001529965  0.1594325928390035   F   F   F
  0.9167222054250030  0.4723333001529965  0.1594325928390035   F   F   F
  0.0833888720920014  0.5556666334859981  0.1594325928390035   F   F   F
  0.5833888720920013  0.5556666334859981  0.1594325928390035   F   F   F
  0.3333888720920014  0.5556666334859981  0.1594325928390035   F   F   F
  0.8333888720920015  0.5556666334859981  0.1594325928390035   F   F   F
  0.0000555387579978  0.6389999668190000  0.1594325928390035   F   F   F
  0.5000555387579979  0.6389999668190000  0.1594325928390035   F   F   F
  0.2500555387579978  0.6389999668190000  0.1594325928390035   F   F   F
  0.7500555387579979  0.6389999668190000  0.1594325928390035   F   F   F
  0.4167222054250033  0.7223333001529963  0.1594325928390035   F   F   F
  0.9167222054250032  0.7223333001529963  0.1594325928390035   F   F   F
  0.1667222054250032  0.7223333001529963  0.1594325928390035   F   F   F
  0.6667222054250033  0.7223333001529963  0.1594325928390035   F   F   F
  0.0833888720920014  0.8056666334859981  0.1594325928390035   F   F   F
  0.5833888720920015  0.8056666334859981  0.1594325928390035   F   F   F
  0.3333888720920015  0.8056666334859981  0.1594325928390035   F   F   F
  0.8333888720920015  0.8056666334859981  0.1594325928390035   F   F   F
  0.2500555387579979  0.8889999668190000  0.1594325928390035   F   F   F
  0.7500555387579979  0.8889999668190000  0.1594325928390035   F   F   F
  0.0000555387579979  0.8889999668190000  0.1594325928390035   F   F   F
  0.5000555387579979  0.8889999668190000  0.1594325928390035   F   F   F
  0.1667222054250032  0.9723333001529963  0.1594325928390035   F   F   F
  0.6667222054250032  0.9723333001529963  0.1594325928390035   F   F   F
  0.4167222054250032  0.9723333001529963  0.1594325928390035   F   F   F
  0.9167222054250032  0.9723333001529963  0.1594325928390035   F   F   F
  0.1659099449121607  0.3879535672547345  0.2548286244465260   T   T   T
  0.5837628559095981  0.9731206887280214  0.2534030218030027   T   T   T
  0.4160340136672331  0.3890166453604650  0.2535497285825145   T   T   T
  0.6675510427693335  0.3886105972477287  0.2535072815039200   T   T   T
  0.0836911776063136  0.7225918356756720  0.2535560791511727   T   T   T
  0.6675359813911607  0.1401707674379611  0.2537038609930560   T   T   T
  0.3328391615931729  0.2217150715607352  0.2537247863111340   T   T   T
  0.5840008432703425  0.4722407703400375  0.2532310655808157   T   T   T
  0.3327706731106254  0.4716012638636535  0.2528645129510808   T   T   T
  0.2503055750710043  0.5551599641334470  0.2539575963500904   T   T   T
  0.2498360392811576  0.0554596387074878  0.2539189264916219   T   T   T
  0.7509452728544911  0.3059179265060443  0.2538522449155942   T   T   T
  0.7510430135522029  0.5557971812607551  0.2538899034366301   T   T   T
  0.4160270167764337  0.8892868809533464  0.2548887010160714   T   T   T
  0.0008990154465575  0.0560246865906065  0.2539240456122618   T   T   T
  0.9990610615678548  0.8059433955714186  0.2539842600067564   T   T   T
  0.4996624601041449  0.0566842895952694  0.2541628417079705   T   T   T
  0.9174023953419024  0.1392287874226998  0.2540609699769904   T   T   T
  0.8340261563081338  0.2225532272808204  0.2540146295965329   T   T   T
  0.1663603686311987  0.8894839053027302  0.2541872503583071   T   T   T
  0.1668194468565109  0.1388747177905109  0.2542761948243538   T   T   T
  0.4995101077906803  0.8063585633065941  0.2539648543876482   T   T   T
  0.9165335488964319  0.8893010420703862  0.2543102957957352   T   T   T
  0.9174332198915026  0.3890894825404365  0.2542363922639739   T   T   T
  0.6679567848841084  0.6396175785849091  0.2543330065264633   T   T   T
  0.0834509692270715  0.9723624681324041  0.2544050485719254   T   T   T
  0.5011964723909427  0.5560056302996692  0.2529944280207034   T   T   T
  0.5002917912166658  0.3045454262896635  0.2550400077227259   T   T   T
  0.2506167914896152  0.8063908101639869  0.2547314991859909   T   T   T
  0.3339853530822917  0.7230286859261588  0.2543847530723827   T   T   T
  0.2489655258522521  0.3058697916964517  0.2562175116939742   T   T   T
  0.9987750145604997  0.5551258715647887  0.2553899242694648   T   T   T
  0.9168826621643830  0.6379905974481996  0.2556686332984960   T   T   T
  0.7502268592008978  0.0540610577360204  0.2554807889267329   T   T   T
  0.5822132013052482  0.2228059384734539  0.2560793899868172   T   T   T
  0.1683843964265774  0.6387770776058461  0.2554525357459874   T   T   T
  0.5831674545581294  0.7228665452009244  0.2552231641408431   T   T   T
  0.4177441693054238  0.1409236697393913  0.2561549846680342   T   T   T
  0.8323794514947089  0.9722571619963614  0.2559587376660489   T   T   T
  0.0850718852348457  0.2237322164636386  0.2560144123587770   T   T   T
  0.3331723889942777  0.9711734882622975  0.2562010571934886   T   T   T
  0.0020013890270480  0.3074268630330280  0.2560910474053452   T   T   T
  0.8314546848083528  0.7229956549458789  0.2564359022758191   T   T   T
  0.7488443781060938  0.8041409232693467  0.2564823709714606   T   T   T
  0.8354148338416465  0.4738822686345838  0.2562513243017082   T   T   T
  0.0862917054114516  0.4732159939705887  0.2573255548353329   T   T   T
  0.6686008278635938  0.8879122282675284  0.2573546620431695   T   T   T
  0.4178931421793347  0.6396492012054193  0.2539961175341627   T   T   T
  0.2506406067002714  0.4701673475012199  0.3464575283690222   T   T   T
  0.5843421653214751  0.8927444685401686  0.3464675786515479   T   T   T
  0.5817991686633402  0.6334332769498676  0.3470222958023887   T   T   T
  0.0835675502872013  0.6399472713170261  0.3469087381883076   T   T   T
  0.4202196986005488  0.8102670731790355  0.3499390451044702   T   T   T
  0.4152342713475927  0.3050742671610512  0.3472332304877500   T   T   T
  0.0009701769528294  0.7249149400751170  0.3477278727005184   T   T   T
  0.5852889355410427  0.3894969597587169  0.3476178078294010   T   T   T
  0.3354588293790208  0.3876085767499728  0.3503702850579298   T   T   T
  0.6699402967361791  0.3069250388779539  0.3481211463241374   T   T   T
  0.5024044751682306  0.9766665681149452  0.3484470051184937   T   T   T
  0.6669615294968030  0.0582405946608893  0.3480333214278646   T   T   T
  0.8319806026263750  0.6399036047944736  0.3483870229889978   T   T   T
  0.8347696135708911  0.1406729781350638  0.3484428068030945   T   T   T
  0.9191712561627803  0.0561176265324314  0.3486445445907120   T   T   T
  0.6674315833668920  0.5529126135118385  0.3489439349159405   T   T   T
  0.3308356933844282  0.1378640316914634  0.3490521043748719   T   T   T
  0.5020103019035294  0.4694723497114714  0.3472720330702430   T   T   T
  0.1643881457395825  0.8072955168202861  0.3487799930935224   T   T   T
  0.7497353846533721  0.4715473069749322  0.3490333681361501   T   T   T
  0.5846526019372250  0.1398991197160815  0.3495195341427582   T   T   T
  0.3348919179217147  0.6374066588221176  0.3457910393067692   T   T   T
  0.8354423229449629  0.8892825060343188  0.3497286993029938   T   T   T
  0.0013731688808943  0.4713325237668476  0.3494248000703374   T   T   T
  0.4165298971438350  0.0563796610030866  0.3499904096393309   T   T   T
  0.9988677947280808  0.2202492311356629  0.3496554171423519   T   T   T
  0.7512481044827058  0.2228973317208296  0.3499147800811283   T   T   T
  0.2493773608062779  0.2212255631932335  0.3502997679613475   T   T   T
  0.0004889085223749  0.9724820744917652  0.3501484247880510   T   T   T
  0.2488719648688206  0.9729504017996659  0.3501047825118977   T   T   T
  0.8346153766752044  0.3882575442619087  0.3500584419035455   T   T   T
  0.9159688212092936  0.8056275002665922  0.3503887466954977   T   T   T
  0.1661683565421346  0.0553671465285283  0.3502961181200004   T   T   T
  0.0824241936508878  0.8895088217556172  0.3504803433870996   T   T   T
  0.0841902371785462  0.1385822498282394  0.3505584114847403   T   T   T
  0.9174928446230272  0.3058953367579029  0.3502927907304784   T   T   T
  0.2463682030504639  0.7234235384193557  0.3501358414129017   T   T   T
  0.5001543657872511  0.7264195505397388  0.3486534453130715   T   T   T
  0.4180608719522497  0.5529999204400132  0.3447675732602395   T   T   T
  0.1682586245474006  0.5581067729766859  0.3557476595089487   T   T   T
  0.6659965674246758  0.8040670007135179  0.3550820166420066   T   T   T
  0.3333718278952932  0.8929292432613322  0.3551700981558080   T   T   T
  0.1669513682846574  0.3037438532295520  0.3572539774173844   T   T   T
  0.0830933629775654  0.3873409544381713  0.3570075201226617   T   T   T
  0.4995517820771125  0.2215977058816624  0.3584159098343365   T   T   T
  0.7512808674260290  0.9713519097873121  0.3571342688876214   T   T   T
  0.7478591468923044  0.7205790169032549  0.3588391897455719   T   T   T
  0.9169509733331785  0.5547331513354437  0.3581034174384890   T   T   T
  0.2720320695192529  0.4982106198298555  0.4944761961037475   T   T   T
  0.4995054913713716  0.6315413027584831  0.4797706552418559   T   T   T
  0.3537727901759144  0.7216349301448799  0.4860391987341512   T   T   T

  0.00000000E+00  0.00000000E+00  0.00000000E+00
  0.00000000E+00  0.00000000E+00  0.00000000E+00
  0.00000000E+00  0.00000000E+00  0.00000000E+00
  0.00000000E+00  0.00000000E+00  0.00000000E+00
  0.00000000E+00  0.00000000E+00  0.00000000E+00
  0.00000000E+00  0.00000000E+00  0.00000000E+00
  0.00000000E+00  0.00000000E+00  0.00000000E+00
  0.00000000E+00  0.00000000E+00  0.00000000E+00
  0.00000000E+00  0.00000000E+00  0.00000000E+00
  0.00000000E+00  0.00000000E+00  0.00000000E+00
  0.00000000E+00  0.00000000E+00  0.00000000E+00
  0.00000000E+00  0.00000000E+00  0.00000000E+00
  0.00000000E+00  0.00000000E+00  0.00000000E+00
  0.00000000E+00  0.00000000E+00  0.00000000E+00
  0.00000000E+00  0.00000000E+00  0.00000000E+00
  0.00000000E+00  0.00000000E+00  0.00000000E+00
  0.00000000E+00  0.00000000E+00  0.00000000E+00
  0.00000000E+00  0.00000000E+00  0.00000000E+00
  0.00000000E+00  0.00000000E+00  0.00000000E+00
  0.00000000E+00  0.00000000E+00  0.00000000E+00
  0.00000000E+00  0.00000000E+00  0.00000000E+00
  0.00000000E+00  0.00000000E+00  0.00000000E+00
  0.00000000E+00  0.00000000E+00  0.00000000E+00
  0.00000000E+00  0.00000000E+00  0.00000000E+00
  0.00000000E+00  0.00000000E+00  0.00000000E+00
  0.00000000E+00  0.00000000E+00  0.00000000E+00
  0.00000000E+00  0.00000000E+00  0.00000000E+00
  0.00000000E+00  0.00000000E+00  0.00000000E+00
  0.00000000E+00  0.00000000E+00  0.00000000E+00
  0.00000000E+00  0.00000000E+00  0.00000000E+00
  0.00000000E+00  0.00000000E+00  0.00000000E+00
  0.00000000E+00  0.00000000E+00  0.00000000E+00
  0.00000000E+00  0.00000000E+00  0.00000000E+00
  0.00000000E+00  0.00000000E+00  0.00000000E+00
  0.00000000E+00  0.00000000E+00  0.00000000E+00
  0.00000000E+00  0.00000000E+00  0.00000000E+00
  0.00000000E+00  0.00000000E+00  0.00000000E+00
  0.00000000E+00  0.00000000E+00  0.00000000E+00
  0.00000000E+00  0.00000000E+00  0.00000000E+00
  0.00000000E+00  0.00000000E+00  0.00000000E+00
  0.00000000E+00  0.00000000E+00  0.00000000E+00
  0.00000000E+00  0.00000000E+00  0.00000000E+00
  0.00000000E+00  0.00000000E+00  0.00000000E+00
  0.00000000E+00  0.00000000E+00  0.00000000E+00
  0.00000000E+00  0.00000000E+00  0.00000000E+00
  0.00000000E+00  0.00000000E+00  0.00000000E+00
  0.00000000E+00  0.00000000E+00  0.00000000E+00
  0.00000000E+00  0.00000000E+00  0.00000000E+00
  0.00000000E+00  0.00000000E+00  0.00000000E+00
  0.00000000E+00  0.00000000E+00  0.00000000E+00
  0.00000000E+00  0.00000000E+00  0.00000000E+00
  0.00000000E+00  0.00000000E+00  0.00000000E+00
  0.00000000E+00  0.00000000E+00  0.00000000E+00
  0.00000000E+00  0.00000000E+00  0.00000000E+00
  0.00000000E+00  0.00000000E+00  0.00000000E+00
  0.00000000E+00  0.00000000E+00  0.00000000E+00
  0.00000000E+00  0.00000000E+00  0.00000000E+00
  0.00000000E+00  0.00000000E+00  0.00000000E+00
  0.00000000E+00  0.00000000E+00  0.00000000E+00
  0.00000000E+00  0.00000000E+00  0.00000000E+00
  0.00000000E+00  0.00000000E+00  0.00000000E+00
  0.00000000E+00  0.00000000E+00  0.00000000E+00
  0.00000000E+00  0.00000000E+00  0.00000000E+00
  0.00000000E+00  0.00000000E+00  0.00000000E+00
  0.00000000E+00  0.00000000E+00  0.00000000E+00
  0.00000000E+00  0.00000000E+00  0.00000000E+00
  0.00000000E+00  0.00000000E+00  0.00000000E+00
  0.00000000E+00  0.00000000E+00  0.00000000E+00
  0.00000000E+00  0.00000000E+00  0.00000000E+00
  0.00000000E+00  0.00000000E+00  0.00000000E+00
  0.00000000E+00  0.00000000E+00  0.00000000E+00
  0.00000000E+00  0.00000000E+00  0.00000000E+00
  0.00000000E+00  0.00000000E+00  0.00000000E+00
  0.00000000E+00  0.00000000E+00  0.00000000E+00
  0.00000000E+00  0.00000000E+00  0.00000000E+00
  0.00000000E+00  0.00000000E+00  0.00000000E+00
  0.00000000E+00  0.00000000E+00  0.00000000E+00
  0.00000000E+00  0.00000000E+00  0.00000000E+00
  0.00000000E+00  0.00000000E+00  0.00000000E+00
  0.00000000E+00  0.00000000E+00  0.00000000E+00
  0.00000000E+00  0.00000000E+00  0.00000000E+00
  0.00000000E+00  0.00000000E+00  0.00000000E+00
  0.00000000E+00  0.00000000E+00  0.00000000E+00
  0.00000000E+00  0.00000000E+00  0.00000000E+00
  0.00000000E+00  0.00000000E+00  0.00000000E+00
  0.00000000E+00  0.00000000E+00  0.00000000E+00
  0.00000000E+00  0.00000000E+00  0.00000000E+00
  0.00000000E+00  0.00000000E+00  0.00000000E+00
  0.00000000E+00  0.00000000E+00  0.00000000E+00
  0.00000000E+00  0.00000000E+00  0.00000000E+00
  0.00000000E+00  0.00000000E+00  0.00000000E+00
  0.00000000E+00  0.00000000E+00  0.00000000E+00
  0.00000000E+00  0.00000000E+00  0.00000000E+00
  0.00000000E+00  0.00000000E+00  0.00000000E+00
  0.00000000E+00  0.00000000E+00  0.00000000E+00
  0.00000000E+00  0.00000000E+00  0.00000000E+00
  0.00000000E+00  0.00000000E+00  0.00000000E+00
  0.00000000E+00  0.00000000E+00  0.00000000E+00
  0.00000000E+00  0.00000000E+00  0.00000000E+00
  0.00000000E+00  0.00000000E+00  0.00000000E+00
  0.00000000E+00  0.00000000E+00  0.00000000E+00
  0.00000000E+00  0.00000000E+00  0.00000000E+00
  0.00000000E+00  0.00000000E+00  0.00000000E+00
  0.00000000E+00  0.00000000E+00  0.00000000E+00
  0.00000000E+00  0.00000000E+00  0.00000000E+00
  0.00000000E+00  0.00000000E+00  0.00000000E+00
  0.00000000E+00  0.00000000E+00  0.00000000E+00
  0.00000000E+00  0.00000000E+00  0.00000000E+00
  0.00000000E+00  0.00000000E+00  0.00000000E+00
  0.00000000E+00  0.00000000E+00  0.00000000E+00
  0.00000000E+00  0.00000000E+00  0.00000000E+00
  0.00000000E+00  0.00000000E+00  0.00000000E+00
  0.00000000E+00  0.00000000E+00  0.00000000E+00
  0.00000000E+00  0.00000000E+00  0.00000000E+00
  0.00000000E+00  0.00000000E+00  0.00000000E+00
  0.00000000E+00  0.00000000E+00  0.00000000E+00
  0.00000000E+00  0.00000000E+00  0.00000000E+00
  0.00000000E+00  0.00000000E+00  0.00000000E+00
  0.00000000E+00  0.00000000E+00  0.00000000E+00
  0.00000000E+00  0.00000000E+00  0.00000000E+00
  0.00000000E+00  0.00000000E+00  0.00000000E+00
  0.00000000E+00  0.00000000E+00  0.00000000E+00
  0.00000000E+00  0.00000000E+00  0.00000000E+00
  0.00000000E+00  0.00000000E+00  0.00000000E+00
  0.00000000E+00  0.00000000E+00  0.00000000E+00
  0.00000000E+00  0.00000000E+00  0.00000000E+00
  0.00000000E+00  0.00000000E+00  0.00000000E+00
  0.00000000E+00  0.00000000E+00  0.00000000E+00
  0.00000000E+00  0.00000000E+00  0.00000000E+00
  0.00000000E+00  0.00000000E+00  0.00000000E+00
  0.00000000E+00  0.00000000E+00  0.00000000E+00
  0.00000000E+00  0.00000000E+00  0.00000000E+00
  0.00000000E+00  0.00000000E+00  0.00000000E+00
  0.00000000E+00  0.00000000E+00  0.00000000E+00
  0.00000000E+00  0.00000000E+00  0.00000000E+00
  0.00000000E+00  0.00000000E+00  0.00000000E+00
  0.00000000E+00  0.00000000E+00  0.00000000E+00
  0.00000000E+00  0.00000000E+00  0.00000000E+00
  0.00000000E+00  0.00000000E+00  0.00000000E+00
  0.00000000E+00  0.00000000E+00  0.00000000E+00
  0.00000000E+00  0.00000000E+00  0.00000000E+00
  0.00000000E+00  0.00000000E+00  0.00000000E+00
  0.00000000E+00  0.00000000E+00  0.00000000E+00
  0.00000000E+00  0.00000000E+00  0.00000000E+00
  0.00000000E+00  0.00000000E+00  0.00000000E+00
  0.00000000E+00  0.00000000E+00  0.00000000E+00
  0.00000000E+00  0.00000000E+00  0.00000000E+00
  0.00000000E+00  0.00000000E+00  0.00000000E+00
  0.00000000E+00  0.00000000E+00  0.00000000E+00
  0.00000000E+00  0.00000000E+00  0.00000000E+00
  0.00000000E+00  0.00000000E+00  0.00000000E+00
  0.00000000E+00  0.00000000E+00  0.00000000E+00
  0.00000000E+00  0.00000000E+00  0.00000000E+00
  0.00000000E+00  0.00000000E+00  0.00000000E+00
  0.00000000E+00  0.00000000E+00  0.00000000E+00
  0.00000000E+00  0.00000000E+00  0.00000000E+00
  0.00000000E+00  0.00000000E+00  0.00000000E+00
  0.00000000E+00  0.00000000E+00  0.00000000E+00
  0.00000000E+00  0.00000000E+00  0.00000000E+00
  0.00000000E+00  0.00000000E+00  0.00000000E+00
  0.00000000E+00  0.00000000E+00  0.00000000E+00
  0.00000000E+00  0.00000000E+00  0.00000000E+00
  0.00000000E+00  0.00000000E+00  0.00000000E+00
  0.00000000E+00  0.00000000E+00  0.00000000E+00
  0.00000000E+00  0.00000000E+00  0.00000000E+00
  0.00000000E+00  0.00000000E+00  0.00000000E+00
  0.00000000E+00  0.00000000E+00  0.00000000E+00
  0.00000000E+00  0.00000000E+00  0.00000000E+00
  0.00000000E+00  0.00000000E+00  0.00000000E+00
  0.00000000E+00  0.00000000E+00  0.00000000E+00
  0.00000000E+00  0.00000000E+00  0.00000000E+00
  0.00000000E+00  0.00000000E+00  0.00000000E+00
  0.00000000E+00  0.00000000E+00  0.00000000E+00
  0.00000000E+00  0.00000000E+00  0.00000000E+00
  0.00000000E+00  0.00000000E+00  0.00000000E+00
  0.00000000E+00  0.00000000E+00  0.00000000E+00
  0.00000000E+00  0.00000000E+00  0.00000000E+00
  0.00000000E+00  0.00000000E+00  0.00000000E+00
  0.00000000E+00  0.00000000E+00  0.00000000E+00
  0.00000000E+00  0.00000000E+00  0.00000000E+00
  0.00000000E+00  0.00000000E+00  0.00000000E+00
  0.00000000E+00  0.00000000E+00  0.00000000E+00
  0.00000000E+00  0.00000000E+00  0.00000000E+00
  0.00000000E+00  0.00000000E+00  0.00000000E+00
  0.00000000E+00  0.00000000E+00  0.00000000E+00
  0.00000000E+00  0.00000000E+00  0.00000000E+00
  0.00000000E+00  0.00000000E+00  0.00000000E+00
  0.00000000E+00  0.00000000E+00  0.00000000E+00
  0.00000000E+00  0.00000000E+00  0.00000000E+00
  0.00000000E+00  0.00000000E+00  0.00000000E+00
  0.00000000E+00  0.00000000E+00  0.00000000E+00
  0.00000000E+00  0.00000000E+00  0.00000000E+00
  0.00000000E+00  0.00000000E+00  0.00000000E+00
  0.00000000E+00  0.00000000E+00  0.00000000E+00
  0.00000000E+00  0.00000000E+00  0.00000000E+00
  0.00000000E+00  0.00000000E+00  0.00000000E+00
  0.00000000E+00  0.00000000E+00  0.00000000E+00
  0.00000000E+00  0.00000000E+00  0.00000000E+00
  0.00000000E+00  0.00000000E+00  0.00000000E+00
  0.00000000E+00  0.00000000E+00  0.00000000E+00
  0.00000000E+00  0.00000000E+00  0.00000000E+00
  0.00000000E+00  0.00000000E+00  0.00000000E+00
  0.00000000E+00  0.00000000E+00  0.00000000E+00
  0.00000000E+00  0.00000000E+00  0.00000000E+00
  0.00000000E+00  0.00000000E+00  0.00000000E+00
  0.00000000E+00  0.00000000E+00  0.00000000E+00
  0.00000000E+00  0.00000000E+00  0.00000000E+00
  0.00000000E+00  0.00000000E+00  0.00000000E+00
  0.00000000E+00  0.00000000E+00  0.00000000E+00
  0.00000000E+00  0.00000000E+00  0.00000000E+00
  0.00000000E+00  0.00000000E+00  0.00000000E+00
  0.00000000E+00  0.00000000E+00  0.00000000E+00
  0.00000000E+00  0.00000000E+00  0.00000000E+00
  0.00000000E+00  0.00000000E+00  0.00000000E+00
  0.00000000E+00  0.00000000E+00  0.00000000E+00
  0.00000000E+00  0.00000000E+00  0.00000000E+00
  0.00000000E+00  0.00000000E+00  0.00000000E+00
  0.00000000E+00  0.00000000E+00  0.00000000E+00
  0.00000000E+00  0.00000000E+00  0.00000000E+00
  0.00000000E+00  0.00000000E+00  0.00000000E+00
  0.00000000E+00  0.00000000E+00  0.00000000E+00
  0.00000000E+00  0.00000000E+00  0.00000000E+00
  0.00000000E+00  0.00000000E+00  0.00000000E+00
  0.00000000E+00  0.00000000E+00  0.00000000E+00
  0.00000000E+00  0.00000000E+00  0.00000000E+00
  0.00000000E+00  0.00000000E+00  0.00000000E+00
  0.00000000E+00  0.00000000E+00  0.00000000E+00
  0.00000000E+00  0.00000000E+00  0.00000000E+00
  0.00000000E+00  0.00000000E+00  0.00000000E+00
  0.00000000E+00  0.00000000E+00  0.00000000E+00
  0.00000000E+00  0.00000000E+00  0.00000000E+00
  0.00000000E+00  0.00000000E+00  0.00000000E+00
  0.00000000E+00  0.00000000E+00  0.00000000E+00
  0.00000000E+00  0.00000000E+00  0.00000000E+00
  0.00000000E+00  0.00000000E+00  0.00000000E+00
  0.00000000E+00  0.00000000E+00  0.00000000E+00
  0.00000000E+00  0.00000000E+00  0.00000000E+00
  0.00000000E+00  0.00000000E+00  0.00000000E+00
