AutoCreatByScript: Pt                   
   1.00000000000000     
    11.2475845400000001    0.0000000000000000    0.0000000000000000
    -5.6237922700000000    9.7406939399999999    0.0000000000000000
     0.0000000000000000    0.0000000000000000   24.1836143200000002
   Pt
    80
Selective dynamics
Direct
  0.5391951066909968  0.2386931699119970  0.0000000000000000   F   F   F
  0.0391951066909968  0.2386931699119970  0.0000000000000000   F   F   F
  0.2891951066909968  0.2386931699119970  0.0000000000000000   F   F   F
  0.7891951066909968  0.2386931699119970  0.0000000000000000   F   F   F
  0.2891951066909968  0.4886931699119970  0.0000000000000000   F   F   F
  0.7891951066909968  0.4886931699119970  0.0000000000000000   F   F   F
  0.5391951066909968  0.4886931699119970  0.0000000000000000   F   F   F
  0.0391951066909968  0.4886931699119970  0.0000000000000000   F   F   F
  0.5391951066909968  0.7386931699119970  0.0000000000000000   F   F   F
  0.0391951066909968  0.7386931699119970  0.0000000000000000   F   F   F
  0.2891951066909968  0.7386931699119970  0.0000000000000000   F   F   F
  0.7891951066909968  0.7386931699119970  0.0000000000000000   F   F   F
  0.2891951066909968  0.9886931699119970  0.0000000000000000   F   F   F
  0.7891951066909968  0.9886931699119970  0.0000000000000000   F   F   F
  0.5391951066909968  0.9886931699119970  0.0000000000000000   F   F   F
  0.0391951066909968  0.9886931699119970  0.0000000000000000   F   F   F
  0.1225284400250004  0.1553598365790023  0.0949363296019996   F   F   F
  0.6225284400250004  0.1553598365790023  0.0949363296019996   F   F   F
  0.3725284400250004  0.1553598365790023  0.0949363296019996   F   F   F
  0.8725284400250004  0.1553598365790023  0.0949363296019996   F   F   F
  0.3725284400250004  0.4053598365790023  0.0949363296019996   F   F   F
  0.8725284400250004  0.4053598365790023  0.0949363296019996   F   F   F
  0.1225284400250004  0.4053598365790023  0.0949363296019996   F   F   F
  0.6225284400250004  0.4053598365790023  0.0949363296019996   F   F   F
  0.1225284400250004  0.6553598365790023  0.0949363296019996   F   F   F
  0.6225284400250004  0.6553598365790023  0.0949363296019996   F   F   F
  0.3725284400250004  0.6553598365790023  0.0949363296019996   F   F   F
  0.8725284400250004  0.6553598365790023  0.0949363296019996   F   F   F
  0.3725284400250004  0.9053598365790023  0.0949363296019996   F   F   F
  0.8725284400250004  0.9053598365790023  0.0949363296019996   F   F   F
  0.1225284400250004  0.9053598365790023  0.0949363296019996   F   F   F
  0.6225284400250004  0.9053598365790023  0.0949363296019996   F   F   F
  0.4558617733580022  0.3220265032460006  0.1888901020469945   T   T   T
  0.9558617733580022  0.3220265032460006  0.1888901020469945   T   T   T
  0.2058617733580022  0.3220265032460006  0.1888901020469945   T   T   T
  0.7058617733580022  0.3220265032460006  0.1888901020469945   T   T   T
  0.2058617733580022  0.5720265032460006  0.1888901020469945   T   T   T
  0.7058617733580022  0.5720265032460006  0.1888901020469945   T   T   T
  0.4558617733580022  0.5720265032460006  0.1888901020469945   T   T   T
  0.9558617733580022  0.5720265032460006  0.1888901020469945   T   T   T
  0.4558617733580022  0.8220265032460006  0.1888901020469945   T   T   T
  0.9558617733580022  0.8220265032460006  0.1888901020469945   T   T   T
  0.2058617733580022  0.8220265032460006  0.1888901020469945   T   T   T
  0.7058617733580022  0.8220265032460006  0.1888901020469945   T   T   T
  0.2058617733580022  0.0720265032460006  0.1888901020469945   T   T   T
  0.7058617733580022  0.0720265032460006  0.1888901020469945   T   T   T
  0.4558617733580022  0.0720265032460006  0.1888901020469945   T   T   T
  0.9558617733580022  0.0720265032460006  0.1888901020469945   T   T   T
  0.5391951066909968  0.2386931699119970  0.2827634391049691   T   T   T
  0.0391951066909968  0.2386931699119970  0.2827634391049691   T   T   T
  0.2891951066909968  0.2386931699119970  0.2827634391049691   T   T   T
  0.7891951066909968  0.2386931699119970  0.2827634391049691   T   T   T
  0.2891951066909968  0.4886931699119970  0.2827634391049691   T   T   T
  0.7891951066909968  0.4886931699119970  0.2827634391049691   T   T   T
  0.5391951066909968  0.4886931699119970  0.2827634391049691   T   T   T
  0.0391951066909968  0.4886931699119970  0.2827634391049691   T   T   T
  0.5391951066909968  0.7386931699119970  0.2827634391049691   T   T   T
  0.0391951066909968  0.7386931699119970  0.2827634391049691   T   T   T
  0.2891951066909968  0.7386931699119970  0.2827634391049691   T   T   T
  0.7891951066909968  0.7386931699119970  0.2827634391049691   T   T   T
  0.2891951066909968  0.9886931699119970  0.2827634391049691   T   T   T
  0.7891951066909968  0.9886931699119970  0.2827634391049691   T   T   T
  0.5391951066909968  0.9886931699119970  0.2827634391049691   T   T   T
  0.0391951066909968  0.9886931699119970  0.2827634391049691   T   T   T
  0.1225284400250004  0.1553598365790023  0.3781767409798861   T   T   T
  0.6225284400250004  0.1553598365790023  0.3781767409798861   T   T   T
  0.3725284400250004  0.1553598365790023  0.3781767409798861   T   T   T
  0.8725284400250004  0.1553598365790023  0.3781767409798861   T   T   T
  0.3725284400250004  0.4053598365790023  0.3781767409798861   T   T   T
  0.8725284400250004  0.4053598365790023  0.3781767409798861   T   T   T
  0.1225284400250004  0.4053598365790023  0.3781767409798861   T   T   T
  0.6225284400250004  0.4053598365790023  0.3781767409798861   T   T   T
  0.1225284400250004  0.6553598365790023  0.3781767409798861   T   T   T
  0.6225284400250004  0.6553598365790023  0.3781767409798861   T   T   T
  0.3725284400250004  0.6553598365790023  0.3781767409798861   T   T   T
  0.8725284400250004  0.6553598365790023  0.3781767409798861   T   T   T
  0.3725284400250004  0.9053598365790023  0.3781767409798861   T   T   T
  0.8725284400250004  0.9053598365790023  0.3781767409798861   T   T   T
  0.1225284400250004  0.9053598365790023  0.3781767409798861   T   T   T
  0.6225284400250004  0.9053598365790023  0.3781767409798861   T   T   T
 
  0.00000000E+00  0.00000000E+00  0.00000000E+00
  0.00000000E+00  0.00000000E+00  0.00000000E+00
  0.00000000E+00  0.00000000E+00  0.00000000E+00
  0.00000000E+00  0.00000000E+00  0.00000000E+00
  0.00000000E+00  0.00000000E+00  0.00000000E+00
  0.00000000E+00  0.00000000E+00  0.00000000E+00
  0.00000000E+00  0.00000000E+00  0.00000000E+00
  0.00000000E+00  0.00000000E+00  0.00000000E+00
  0.00000000E+00  0.00000000E+00  0.00000000E+00
  0.00000000E+00  0.00000000E+00  0.00000000E+00
  0.00000000E+00  0.00000000E+00  0.00000000E+00
  0.00000000E+00  0.00000000E+00  0.00000000E+00
  0.00000000E+00  0.00000000E+00  0.00000000E+00
  0.00000000E+00  0.00000000E+00  0.00000000E+00
  0.00000000E+00  0.00000000E+00  0.00000000E+00
  0.00000000E+00  0.00000000E+00  0.00000000E+00
  0.00000000E+00  0.00000000E+00  0.00000000E+00
  0.00000000E+00  0.00000000E+00  0.00000000E+00
  0.00000000E+00  0.00000000E+00  0.00000000E+00
  0.00000000E+00  0.00000000E+00  0.00000000E+00
  0.00000000E+00  0.00000000E+00  0.00000000E+00
  0.00000000E+00  0.00000000E+00  0.00000000E+00
  0.00000000E+00  0.00000000E+00  0.00000000E+00
  0.00000000E+00  0.00000000E+00  0.00000000E+00
  0.00000000E+00  0.00000000E+00  0.00000000E+00
  0.00000000E+00  0.00000000E+00  0.00000000E+00
  0.00000000E+00  0.00000000E+00  0.00000000E+00
  0.00000000E+00  0.00000000E+00  0.00000000E+00
  0.00000000E+00  0.00000000E+00  0.00000000E+00
  0.00000000E+00  0.00000000E+00  0.00000000E+00
  0.00000000E+00  0.00000000E+00  0.00000000E+00
  0.00000000E+00  0.00000000E+00  0.00000000E+00
  0.00000000E+00  0.00000000E+00  0.00000000E+00
  0.00000000E+00  0.00000000E+00  0.00000000E+00
  0.00000000E+00  0.00000000E+00  0.00000000E+00
  0.00000000E+00  0.00000000E+00  0.00000000E+00
  0.00000000E+00  0.00000000E+00  0.00000000E+00
  0.00000000E+00  0.00000000E+00  0.00000000E+00
  0.00000000E+00  0.00000000E+00  0.00000000E+00
  0.00000000E+00  0.00000000E+00  0.00000000E+00
  0.00000000E+00  0.00000000E+00  0.00000000E+00
  0.00000000E+00  0.00000000E+00  0.00000000E+00
  0.00000000E+00  0.00000000E+00  0.00000000E+00
  0.00000000E+00  0.00000000E+00  0.00000000E+00
  0.00000000E+00  0.00000000E+00  0.00000000E+00
  0.00000000E+00  0.00000000E+00  0.00000000E+00
  0.00000000E+00  0.00000000E+00  0.00000000E+00
  0.00000000E+00  0.00000000E+00  0.00000000E+00
  0.00000000E+00  0.00000000E+00  0.00000000E+00
  0.00000000E+00  0.00000000E+00  0.00000000E+00
  0.00000000E+00  0.00000000E+00  0.00000000E+00
  0.00000000E+00  0.00000000E+00  0.00000000E+00
  0.00000000E+00  0.00000000E+00  0.00000000E+00
  0.00000000E+00  0.00000000E+00  0.00000000E+00
  0.00000000E+00  0.00000000E+00  0.00000000E+00
  0.00000000E+00  0.00000000E+00  0.00000000E+00
  0.00000000E+00  0.00000000E+00  0.00000000E+00
  0.00000000E+00  0.00000000E+00  0.00000000E+00
  0.00000000E+00  0.00000000E+00  0.00000000E+00
  0.00000000E+00  0.00000000E+00  0.00000000E+00
  0.00000000E+00  0.00000000E+00  0.00000000E+00
  0.00000000E+00  0.00000000E+00  0.00000000E+00
  0.00000000E+00  0.00000000E+00  0.00000000E+00
  0.00000000E+00  0.00000000E+00  0.00000000E+00
  0.00000000E+00  0.00000000E+00  0.00000000E+00
  0.00000000E+00  0.00000000E+00  0.00000000E+00
  0.00000000E+00  0.00000000E+00  0.00000000E+00
  0.00000000E+00  0.00000000E+00  0.00000000E+00
  0.00000000E+00  0.00000000E+00  0.00000000E+00
  0.00000000E+00  0.00000000E+00  0.00000000E+00
  0.00000000E+00  0.00000000E+00  0.00000000E+00
  0.00000000E+00  0.00000000E+00  0.00000000E+00
  0.00000000E+00  0.00000000E+00  0.00000000E+00
  0.00000000E+00  0.00000000E+00  0.00000000E+00
  0.00000000E+00  0.00000000E+00  0.00000000E+00
  0.00000000E+00  0.00000000E+00  0.00000000E+00
  0.00000000E+00  0.00000000E+00  0.00000000E+00
  0.00000000E+00  0.00000000E+00  0.00000000E+00
  0.00000000E+00  0.00000000E+00  0.00000000E+00
  0.00000000E+00  0.00000000E+00  0.00000000E+00
