AutoCreatByScript: Co Pt                
   1.00000000000000     
    10.6641153800000001    0.0000000000000000    0.0000000000000000
    -5.2045249900000004    9.3078610000000008    0.0000000000000000
     0.0000000000000000    0.0000000000000000   23.7399317900000000
   Co   Pt
    40    40
Selective dynamics
Direct
  0.0431717544749972  0.1836637210640005  0.0000273461980029   F   F   F
  0.5431717544749938  0.1836637210640005  0.0000273461980029   F   F   F
  0.2932412019380007  0.4337331685269985  0.0000273461980029   F   F   F
  0.7932412019379985  0.4337331685269985  0.0000273461980029   F   F   F
  0.0431717544749971  0.6836637210640006  0.0000273461980029   F   F   F
  0.5431717544749968  0.6836637210640006  0.0000273461980029   F   F   F
  0.2932412019380021  0.9337331685269955  0.0000273461980029   F   F   F
  0.7932412019379994  0.9337331685269955  0.0000273461980029   F   F   F
  0.1292299143780013  0.0977444560859974  0.0920564938390029   F   F   F
  0.6292299143779982  0.0977444560859974  0.0920564938390029   F   F   F
  0.3791604669159966  0.3476750086240000  0.0920564938390029   F   F   F
  0.8791604669159948  0.3476750086240000  0.0920564938390029   F   F   F
  0.1292299143780015  0.5977444560859946  0.0920564938390029   F   F   F
  0.6292299143779986  0.5977444560859946  0.0920564938390029   F   F   F
  0.3791604669159964  0.8476750086239978  0.0920564938390029   F   F   F
  0.8791604669159940  0.8476750086239978  0.0920564938390029   F   F   F
  0.9637260920081648  0.2631671190706839  0.1830293397078660   T   T   T
  0.4637260920081681  0.2631671190706839  0.1830293397078660   T   T   T
  0.2137378039313105  0.5131788309938309  0.1830293397078660   T   T   T
  0.7137378039313081  0.5131788309938309  0.1830293397078660   T   T   T
  0.9637260920081658  0.7631671190706807  0.1830293397078660   T   T   T
  0.4637260920081682  0.7631671190706807  0.1830293397078660   T   T   T
  0.2137378039313103  0.0131788309938331  0.1830293397078660   T   T   T
  0.7137378039313085  0.0131788309938331  0.1830293397078660   T   T   T
  0.0514290901789221  0.1754722975241684  0.2786316073553081   T   T   T
  0.5514290901789197  0.1754722975241684  0.2786316073553081   T   T   T
  0.3014326254778328  0.4254758328230718  0.2786316073553081   T   T   T
  0.8014326254778302  0.4254758328230718  0.2786316073553081   T   T   T
  0.0514290901789216  0.6754722975241665  0.2786316073553081   T   T   T
  0.5514290901789197  0.6754722975241665  0.2786316073553081   T   T   T
  0.3014326254778324  0.9254758328230710  0.2786316073553081   T   T   T
  0.8014326254778296  0.9254758328230710  0.2786316073553081   T   T   T
  0.1345112623493989  0.0924024940144697  0.3645236079985874   T   T   T
  0.6345112623493961  0.0924024940144697  0.3645236079985874   T   T   T
  0.3845024289875241  0.3423936606536035  0.3645236079985874   T   T   T
  0.8845024289875224  0.3423936606536035  0.3645236079985874   T   T   T
  0.1345112623493998  0.5924024940144680  0.3645236079985874   T   T   T
  0.6345112623493973  0.5924024940144680  0.3645236079985874   T   T   T
  0.3845024289875241  0.8423936606536023  0.3645236079985874   T   T   T
  0.8845024289875225  0.8423936606536023  0.3645236079985874   T   T   T
  0.2932396960899965  0.1836652269119972  0.0000366066290027   F   F   F
  0.7932396960899946  0.1836652269119972  0.0000366066290027   F   F   F
  0.0432054921779972  0.4336994308239992  0.0000000000000000   F   F   F
  0.5432054921779965  0.4336994308239992  0.0000000000000000   F   F   F
  0.2932396960899977  0.6836652269119976  0.0000366066290027   F   F   F
  0.7932396960899974  0.6836652269119976  0.0000366066290027   F   F   F
  0.0432054921779958  0.9336994308239950  0.0000000000000000   F   F   F
  0.5432054921779936  0.9336994308239950  0.0000000000000000   F   F   F
  0.3791942046189962  0.0977107183840000  0.0920291476410000   F   F   F
  0.8791942046189943  0.0977107183840000  0.0920291476410000   F   F   F
  0.1292284085309985  0.3476765144719974  0.0920657542690009   F   F   F
  0.6292284085309973  0.3476765144719974  0.0920657542690009   F   F   F
  0.3791942046189954  0.5977107183840000  0.0920291476410000   F   F   F
  0.8791942046189934  0.5977107183840000  0.0920291476410000   F   F   F
  0.1292284085309976  0.8476765144719952  0.0920657542690009   F   F   F
  0.6292284085309960  0.8476765144719952  0.0920657542690009   F   F   F
  0.2136605989545108  0.2632443240474906  0.1845747712522128   T   T   T
  0.7136605989545083  0.2632443240474906  0.1845747712522128   T   T   T
  0.9636549641635233  0.5132499588384670  0.1845562077006237   T   T   T
  0.4636549641635255  0.5132499588384670  0.1845562077006237   T   T   T
  0.2136605989545105  0.7632443240474888  0.1845747712522128   T   T   T
  0.7136605989545082  0.7632443240474888  0.1845747712522128   T   T   T
  0.9636549641635230  0.0132499588384686  0.1845562077006237   T   T   T
  0.4636549641635259  0.0132499588384686  0.1845562077006237   T   T   T
  0.0513369795320548  0.4255679434709412  0.2750909273577616   T   T   T
  0.5513369795320536  0.4255679434709412  0.2750909273577616   T   T   T
  0.0513369795320546  0.9255679434709385  0.2750909273577616   T   T   T
  0.5513369795320523  0.9255679434709385  0.2750909273577616   T   T   T
  0.3013440052619503  0.1755609177410451  0.2751000633224666   T   T   T
  0.8013440052619489  0.1755609177410451  0.2751000633224666   T   T   T
  0.3013440052619503  0.6755609177410419  0.2751000633224666   T   T   T
  0.8013440052619490  0.6755609177410419  0.2751000633224666   T   T   T
  0.3886600991745314  0.0882448238274701  0.3682880189961764   T   T   T
  0.8886600991745296  0.0882448238274701  0.3682880189961764   T   T   T
  0.1386493946091168  0.3382555283928769  0.3682831505189993   T   T   T
  0.6386493946091149  0.3382555283928769  0.3682831505189993   T   T   T
  0.3886600991745320  0.5882448238274692  0.3682880189961764   T   T   T
  0.8886600991745288  0.5882448238274692  0.3682880189961764   T   T   T
  0.1386493946091176  0.8382555283928746  0.3682831505189993   T   T   T
  0.6386493946091146  0.8382555283928746  0.3682831505189993   T   T   T
 
  0.00000000E+00  0.00000000E+00  0.00000000E+00
  0.00000000E+00  0.00000000E+00  0.00000000E+00
  0.00000000E+00  0.00000000E+00  0.00000000E+00
  0.00000000E+00  0.00000000E+00  0.00000000E+00
  0.00000000E+00  0.00000000E+00  0.00000000E+00
  0.00000000E+00  0.00000000E+00  0.00000000E+00
  0.00000000E+00  0.00000000E+00  0.00000000E+00
  0.00000000E+00  0.00000000E+00  0.00000000E+00
  0.00000000E+00  0.00000000E+00  0.00000000E+00
  0.00000000E+00  0.00000000E+00  0.00000000E+00
  0.00000000E+00  0.00000000E+00  0.00000000E+00
  0.00000000E+00  0.00000000E+00  0.00000000E+00
  0.00000000E+00  0.00000000E+00  0.00000000E+00
  0.00000000E+00  0.00000000E+00  0.00000000E+00
  0.00000000E+00  0.00000000E+00  0.00000000E+00
  0.00000000E+00  0.00000000E+00  0.00000000E+00
  0.00000000E+00  0.00000000E+00  0.00000000E+00
  0.00000000E+00  0.00000000E+00  0.00000000E+00
  0.00000000E+00  0.00000000E+00  0.00000000E+00
  0.00000000E+00  0.00000000E+00  0.00000000E+00
  0.00000000E+00  0.00000000E+00  0.00000000E+00
  0.00000000E+00  0.00000000E+00  0.00000000E+00
  0.00000000E+00  0.00000000E+00  0.00000000E+00
  0.00000000E+00  0.00000000E+00  0.00000000E+00
  0.00000000E+00  0.00000000E+00  0.00000000E+00
  0.00000000E+00  0.00000000E+00  0.00000000E+00
  0.00000000E+00  0.00000000E+00  0.00000000E+00
  0.00000000E+00  0.00000000E+00  0.00000000E+00
  0.00000000E+00  0.00000000E+00  0.00000000E+00
  0.00000000E+00  0.00000000E+00  0.00000000E+00
  0.00000000E+00  0.00000000E+00  0.00000000E+00
  0.00000000E+00  0.00000000E+00  0.00000000E+00
  0.00000000E+00  0.00000000E+00  0.00000000E+00
  0.00000000E+00  0.00000000E+00  0.00000000E+00
  0.00000000E+00  0.00000000E+00  0.00000000E+00
  0.00000000E+00  0.00000000E+00  0.00000000E+00
  0.00000000E+00  0.00000000E+00  0.00000000E+00
  0.00000000E+00  0.00000000E+00  0.00000000E+00
  0.00000000E+00  0.00000000E+00  0.00000000E+00
  0.00000000E+00  0.00000000E+00  0.00000000E+00
  0.00000000E+00  0.00000000E+00  0.00000000E+00
  0.00000000E+00  0.00000000E+00  0.00000000E+00
  0.00000000E+00  0.00000000E+00  0.00000000E+00
  0.00000000E+00  0.00000000E+00  0.00000000E+00
  0.00000000E+00  0.00000000E+00  0.00000000E+00
  0.00000000E+00  0.00000000E+00  0.00000000E+00
  0.00000000E+00  0.00000000E+00  0.00000000E+00
  0.00000000E+00  0.00000000E+00  0.00000000E+00
  0.00000000E+00  0.00000000E+00  0.00000000E+00
  0.00000000E+00  0.00000000E+00  0.00000000E+00
  0.00000000E+00  0.00000000E+00  0.00000000E+00
  0.00000000E+00  0.00000000E+00  0.00000000E+00
  0.00000000E+00  0.00000000E+00  0.00000000E+00
  0.00000000E+00  0.00000000E+00  0.00000000E+00
  0.00000000E+00  0.00000000E+00  0.00000000E+00
  0.00000000E+00  0.00000000E+00  0.00000000E+00
  0.00000000E+00  0.00000000E+00  0.00000000E+00
  0.00000000E+00  0.00000000E+00  0.00000000E+00
  0.00000000E+00  0.00000000E+00  0.00000000E+00
  0.00000000E+00  0.00000000E+00  0.00000000E+00
  0.00000000E+00  0.00000000E+00  0.00000000E+00
  0.00000000E+00  0.00000000E+00  0.00000000E+00
  0.00000000E+00  0.00000000E+00  0.00000000E+00
  0.00000000E+00  0.00000000E+00  0.00000000E+00
  0.00000000E+00  0.00000000E+00  0.00000000E+00
  0.00000000E+00  0.00000000E+00  0.00000000E+00
  0.00000000E+00  0.00000000E+00  0.00000000E+00
  0.00000000E+00  0.00000000E+00  0.00000000E+00
  0.00000000E+00  0.00000000E+00  0.00000000E+00
  0.00000000E+00  0.00000000E+00  0.00000000E+00
  0.00000000E+00  0.00000000E+00  0.00000000E+00
  0.00000000E+00  0.00000000E+00  0.00000000E+00
  0.00000000E+00  0.00000000E+00  0.00000000E+00
  0.00000000E+00  0.00000000E+00  0.00000000E+00
  0.00000000E+00  0.00000000E+00  0.00000000E+00
  0.00000000E+00  0.00000000E+00  0.00000000E+00
  0.00000000E+00  0.00000000E+00  0.00000000E+00
  0.00000000E+00  0.00000000E+00  0.00000000E+00
  0.00000000E+00  0.00000000E+00  0.00000000E+00
  0.00000000E+00  0.00000000E+00  0.00000000E+00
