AutoCreatByScript: H C                  
   1.00000000000000     
    11.0000000000000000    0.0000000000000000    0.0000000000000000
     0.0000000000000000   12.0000000000000000    0.0000000000000000
     0.0000000000000000    0.0000000000000000   13.0000000000000000
   H    C 
     4     1
Selective dynamics
Direct
  0.5037395552510020  0.4393024260700003  0.4918717486140025   T   T   T
  0.3707707181030031  0.4823995602089965  0.5607657033920006   T   T   T
  0.5037322034580001  0.5685848239499975  0.5607654798429991   T   T   T
  0.5037376897849981  0.4393100798479992  0.6296642104669985   T   T   T
  0.4704885288590006  0.4823995467399982  0.5607663860159988   T   T   T
 
  0.00000000E+00  0.00000000E+00  0.00000000E+00
  0.00000000E+00  0.00000000E+00  0.00000000E+00
  0.00000000E+00  0.00000000E+00  0.00000000E+00
  0.00000000E+00  0.00000000E+00  0.00000000E+00
  0.00000000E+00  0.00000000E+00  0.00000000E+00
