AutoGenerated
   1.00000000000000
    13.3490889999999993   -7.7070999999999996    0.0000000000000000
     0.0000000000000000   15.4141999999999992    0.0000000000000000
     0.0000000000000000    0.0000000000000000   19.8659989999999986
   Ce   H    N    O    W
    48     3     1    99     1
Selective dynamics
Direct
  0.6846999999999994  0.0162199999999970  0.0592200000000034   F   F   F
  0.9346999999999994  0.0162199999999970  0.0592200000000034   F   F   F
  0.1846900000000034  0.0162199999999970  0.0592200000000034   F   F   F
  0.4346900000000034  0.0162199999999970  0.0592200000000034   F   F   F
  0.4346900000000034  0.2662199999999970  0.0592200000000034   F   F   F
  0.6846999999999994  0.2662199999999970  0.0592200000000034   F   F   F
  0.9346999999999994  0.2662199999999970  0.0592200000000034   F   F   F
  0.1846900000000034  0.2662199999999970  0.0592200000000034   F   F   F
  0.1846900000000034  0.5162199999999970  0.0592200000000034   F   F   F
  0.4346900000000034  0.5162199999999970  0.0592200000000034   F   F   F
  0.6846999999999994  0.5162199999999970  0.0592200000000034   F   F   F
  0.9346999999999994  0.5162199999999970  0.0592200000000034   F   F   F
  0.1846900000000034  0.7662199999999970  0.0592200000000034   F   F   F
  0.4346900000000034  0.7662199999999970  0.0592200000000034   F   F   F
  0.6846999999999994  0.7662199999999970  0.0592200000000034   F   F   F
  0.9346999999999994  0.7662199999999970  0.0592200000000034   F   F   F
  0.7679454672363747  0.6826328177545988  0.2181292898698835   T   T   T
  0.2683870814844651  0.1829540799819487  0.2178780355263305   T   T   T
  0.2683235233329196  0.6829582229284135  0.2178189000845701   T   T   T
  0.2682308578462129  0.9329755110030069  0.2178893424418970   T   T   T
  0.0184341095710010  0.6831222759827893  0.2179956718538278   T   T   T
  0.0183270598243797  0.9329106350094299  0.2179495397134650   T   T   T
  0.7685153974949598  0.1841683638783179  0.2197319661197890   T   T   T
  0.5181941050711553  0.1830843871704758  0.2191004779988594   T   T   T
  0.7684146309114414  0.4323575699302410  0.2201623252725337   T   T   T
  0.5180675870644613  0.9325929454292686  0.2184836138031065   T   T   T
  0.0183987284939307  0.4331756916010198  0.2187913884441319   T   T   T
  0.7678730289738080  0.9326476042978338  0.2188171763684420   T   T   T
  0.0187810450621492  0.1830734259731064  0.2185791419646638   T   T   T
  0.5173168172808111  0.6812029426872875  0.2207326133454699   T   T   T
  0.2700382891514677  0.4339040515960408  0.2205037020809869   T   T   T
  0.5175025949058588  0.4339913763545639  0.2203788051435808   T   T   T
  0.5994358974197341  0.0962803361788149  0.3791432744064238   T   T   T
  0.8598905416874922  0.3533721583236478  0.3832022911369598   T   T   T
  0.8522126372023748  0.1001546273044001  0.3783408459319340   T   T   T
  0.8553080098076913  0.6005901179215393  0.3787293389709467   T   T   T
  0.3514710175852278  0.0966008697096217  0.3784006565906772   T   T   T
  0.3512238900600651  0.8519751009425951  0.3784435650213654   T   T   T
  0.1009063828222641  0.6021935523449309  0.3784078095434393   T   T   T
  0.8546350210078461  0.8527783587789378  0.3786000897028226   T   T   T
  0.0988473158904937  0.0964712159333866  0.3782132337622831   T   T   T
  0.1018191207456170  0.8501297913235533  0.3793628314910625   T   T   T
  0.5990460498581393  0.3506812560976564  0.3804765208055431   T   T   T
  0.6018479444693676  0.8500161029704121  0.3800845857248141   T   T   T
  0.1030991796954299  0.3492088810897969  0.3797017173261399   T   T   T
  0.3437720838083350  0.3349532968434276  0.3825490463229773   T   T   T
  0.6164446591549850  0.6077270590690549  0.3828763400988943   T   T   T
  0.3445023484532262  0.6070207198623038  0.3830539491235732   T   T   T
  0.7213730726325301  0.2848570450104999  0.4741531646519947   T   T   T
  0.8490065225697462  0.4012639368501187  0.5278841166556009   T   T   T
  0.8496984142911815  0.2948149025376311  0.5277800393331323   T   T   T
  0.8255742193407095  0.3360807561026988  0.5016322088930607   T   T   T
  0.1013599999999997  0.0995500000000007  0.0196200000000033   F   F   F
  0.8513599999999997  0.0995500000000007  0.0196200000000033   F   F   F
  0.3513599999999997  0.0995500000000007  0.0196200000000033   F   F   F
  0.6013599999999997  0.0995500000000007  0.0196200000000033   F   F   F
  0.1013599999999997  0.3495500000000007  0.0196200000000033   F   F   F
  0.3513599999999997  0.3495500000000007  0.0196200000000033   F   F   F
  0.6013599999999997  0.3495500000000007  0.0196200000000033   F   F   F
  0.8513599999999997  0.3495500000000007  0.0196200000000033   F   F   F
  0.3513599999999997  0.5995500000000007  0.0196200000000033   F   F   F
  0.6013599999999997  0.5995500000000007  0.0196200000000033   F   F   F
  0.8513599999999997  0.5995500000000007  0.0196200000000033   F   F   F
  0.1013599999999997  0.5995500000000007  0.0196200000000033   F   F   F
  0.1013599999999997  0.8495500000000007  0.0196200000000033   F   F   F
  0.3513599999999997  0.8495500000000007  0.0196200000000033   F   F   F
  0.6013599999999997  0.8495500000000007  0.0196200000000033   F   F   F
  0.8513599999999997  0.8495500000000007  0.0196200000000033   F   F   F
  0.2680300000000031  0.1828799999999973  0.0988100000000003   F   F   F
  0.5180300000000031  0.1828799999999973  0.0988100000000003   F   F   F
  0.7680300000000031  0.1828799999999973  0.0988100000000003   F   F   F
  0.0180300000000031  0.1828799999999973  0.0988100000000003   F   F   F
  0.2680300000000031  0.4328799999999973  0.0988100000000003   F   F   F
  0.5180300000000031  0.4328799999999973  0.0988100000000003   F   F   F
  0.7680300000000031  0.4328799999999973  0.0988100000000003   F   F   F
  0.0180300000000031  0.4328799999999973  0.0988100000000003   F   F   F
  0.5180300000000031  0.6828799999999973  0.0988100000000003   F   F   F
  0.7680300000000031  0.6828799999999973  0.0988100000000003   F   F   F
  0.0180300000000031  0.6828799999999973  0.0988100000000003   F   F   F
  0.2680300000000031  0.6828799999999973  0.0988100000000003   F   F   F
  0.2680300000000031  0.9328799999999973  0.0988100000000003   F   F   F
  0.5180300000000031  0.9328799999999973  0.0988100000000003   F   F   F
  0.7680300000000031  0.9328799999999973  0.0988100000000003   F   F   F
  0.0180300000000031  0.9328799999999973  0.0988100000000003   F   F   F
  0.1854350755416187  0.0166199363857430  0.1772380854531108   T   T   T
  0.9341645507071066  0.7653430406203168  0.1778776231868125   T   T   T
  0.1848044241902398  0.7661569599617412  0.1774868322153985   T   T   T
  0.9347900922392474  0.5165600673031125  0.1779750622840189   T   T   T
  0.9341258894149750  0.0167243611001620  0.1781752452900458   T   T   T
  0.4355323475132636  0.0167707120459491  0.1779436184528536   T   T   T
  0.1851140527322950  0.2671626162819035  0.1780960746412983   T   T   T
  0.6839818530192974  0.7660266032812100  0.1782352503586922   T   T   T
  0.6842784541538838  0.5156087569059528  0.1783367826838975   T   T   T
  0.1851784967276793  0.5156759758334435  0.1780518447696698   T   T   T
  0.4358308069722577  0.2671324523357920  0.1781766488773393   T   T   T
  0.4356157436890354  0.7660402575777644  0.1780832181433755   T   T   T
  0.9372721307072448  0.2670288523890575  0.1783812088125712   T   T   T
  0.6839482116969899  0.0142080988642325  0.1785088391923034   T   T   T
  0.6834777691728738  0.2673389777935834  0.1791057121119435   T   T   T
  0.4349369251397918  0.5163799221320086  0.1792888948874616   T   T   T
  0.6032414985842466  0.0996450097812934  0.2592689834909773   T   T   T
  0.8527834595944153  0.3493088652141668  0.2574388995201600   T   T   T
  0.8497658622796840  0.1016094666802993  0.2600356301507404   T   T   T
  0.1016462969477655  0.5995252877322121  0.2592126285517413   T   T   T
  0.3524230048669364  0.0999568739115173  0.2595687782423178   T   T   T
  0.3517593895955775  0.8499096143300825  0.2588591175657134   T   T   T
  0.8503781724465368  0.5970421143785879  0.2606960247525028   T   T   T
  0.8515564585444821  0.8499077739522152  0.2591377560867067   T   T   T
  0.1018953447727499  0.0989683793485734  0.2585230246282459   T   T   T
  0.1020352757462380  0.8507623926135615  0.2587225293308100   T   T   T
  0.6034840378812724  0.6005496677822471  0.2602345796535305   T   T   T
  0.3507900633228520  0.3477144341456839  0.2599838415070236   T   T   T
  0.3506578606540833  0.6005190502537382  0.2601599639139597   T   T   T
  0.5986526048127379  0.8435674211635718  0.2632031969469450   T   T   T
  0.1077807871126393  0.3527152788019313  0.2630472041586860   T   T   T
  0.5985925468558937  0.3535905306956975  0.2636773277274713   T   T   T
  0.5220301158378146  0.1827703462080626  0.3369509571699859   T   T   T
  0.7671172061514051  0.4243955459419363  0.3408906771930238   T   T   T
  0.5191721328618125  0.9347072823211080  0.3366870942767072   T   T   T
  0.0171317681469914  0.4321044650884366  0.3380950495111719   T   T   T
  0.7697375202971830  0.9361466518098124  0.3367492566873441   T   T   T
  0.0166492473647636  0.1800206375785242  0.3354327392227726   T   T   T
  0.2684969943415872  0.9331665589887653  0.3369033411317360   T   T   T
  0.0196890017559716  0.6856268595653610  0.3359885169598764   T   T   T
  0.0181241961063197  0.9331075356584035  0.3371473562934538   T   T   T
  0.2671234006978234  0.6859579985610695  0.3380030157483661   T   T   T
  0.7727228155740968  0.6857421545633684  0.3382930198282367   T   T   T
  0.2658854219455158  0.1784274673974361  0.3380565815231178   T   T   T
  0.7668363515292795  0.1870883439412456  0.3428211784495212   T   T   T
  0.2825714423542557  0.4397143286541522  0.3481087906156096   T   T   T
  0.5115217561447581  0.6691928269052653  0.3483275463093674   T   T   T
  0.5108698288483003  0.4403191166774018  0.3488178105371676   T   T   T
  0.6922190920147272  0.5163826109562727  0.4164558142204582   T   T   T
  0.4342628500337719  0.2586511246248085  0.4163082063662565   T   T   T
  0.4355771126522867  0.7743025405829609  0.4171408464241277   T   T   T
  0.6925989756652091  0.7747790814166382  0.4170015354194930   T   T   T
  0.1773839623118334  0.2585084935015070  0.4169874000596366   T   T   T
  0.1790459865389562  0.5172119239722398  0.4167323061597771   T   T   T
  0.1842951274713655  0.0139837276666544  0.4192335431782588   T   T   T
  0.9374528728812369  0.7676218949629876  0.4193951095273227   T   T   T
  0.6629240217701049  0.2564344814649049  0.4347111307388674   T   T   T
  0.1845814362190137  0.7683753598729367  0.4194914296610006   T   T   T
  0.9422346807943051  0.2636236353106046  0.4183274127461916   T   T   T
  0.6830845445395487  0.0138274031876766  0.4193369500181207   T   T   T
  0.9404360739250925  0.5251364336272168  0.4185128241121688   T   T   T
  0.4340278935589821  0.0151808226886040  0.4192258408151394   T   T   T
  0.9349165692919958  0.0162878416734463  0.4195349761463487   T   T   T
  0.3730315666929855  0.5794282319899652  0.4939216334313122   T   T   T
  0.3728738927489744  0.3904696305768229  0.4935978646495318   T   T   T
  0.5619381853852333  0.5794504105381835  0.4940678242630315   T   T   T
  0.4355165016606662  0.5158904546857215  0.6167399789917533   T   T   T
  0.4358527524189085  0.5162708844182898  0.5289124323484778   T   T   T

  0.00000000E+00  0.00000000E+00  0.00000000E+00
  0.00000000E+00  0.00000000E+00  0.00000000E+00
  0.00000000E+00  0.00000000E+00  0.00000000E+00
  0.00000000E+00  0.00000000E+00  0.00000000E+00
  0.00000000E+00  0.00000000E+00  0.00000000E+00
  0.00000000E+00  0.00000000E+00  0.00000000E+00
  0.00000000E+00  0.00000000E+00  0.00000000E+00
  0.00000000E+00  0.00000000E+00  0.00000000E+00
  0.00000000E+00  0.00000000E+00  0.00000000E+00
  0.00000000E+00  0.00000000E+00  0.00000000E+00
  0.00000000E+00  0.00000000E+00  0.00000000E+00
  0.00000000E+00  0.00000000E+00  0.00000000E+00
  0.00000000E+00  0.00000000E+00  0.00000000E+00
  0.00000000E+00  0.00000000E+00  0.00000000E+00
  0.00000000E+00  0.00000000E+00  0.00000000E+00
  0.00000000E+00  0.00000000E+00  0.00000000E+00
  0.00000000E+00  0.00000000E+00  0.00000000E+00
  0.00000000E+00  0.00000000E+00  0.00000000E+00
  0.00000000E+00  0.00000000E+00  0.00000000E+00
  0.00000000E+00  0.00000000E+00  0.00000000E+00
  0.00000000E+00  0.00000000E+00  0.00000000E+00
  0.00000000E+00  0.00000000E+00  0.00000000E+00
  0.00000000E+00  0.00000000E+00  0.00000000E+00
  0.00000000E+00  0.00000000E+00  0.00000000E+00
  0.00000000E+00  0.00000000E+00  0.00000000E+00
  0.00000000E+00  0.00000000E+00  0.00000000E+00
  0.00000000E+00  0.00000000E+00  0.00000000E+00
  0.00000000E+00  0.00000000E+00  0.00000000E+00
  0.00000000E+00  0.00000000E+00  0.00000000E+00
  0.00000000E+00  0.00000000E+00  0.00000000E+00
  0.00000000E+00  0.00000000E+00  0.00000000E+00
  0.00000000E+00  0.00000000E+00  0.00000000E+00
  0.00000000E+00  0.00000000E+00  0.00000000E+00
  0.00000000E+00  0.00000000E+00  0.00000000E+00
  0.00000000E+00  0.00000000E+00  0.00000000E+00
  0.00000000E+00  0.00000000E+00  0.00000000E+00
  0.00000000E+00  0.00000000E+00  0.00000000E+00
  0.00000000E+00  0.00000000E+00  0.00000000E+00
  0.00000000E+00  0.00000000E+00  0.00000000E+00
  0.00000000E+00  0.00000000E+00  0.00000000E+00
  0.00000000E+00  0.00000000E+00  0.00000000E+00
  0.00000000E+00  0.00000000E+00  0.00000000E+00
  0.00000000E+00  0.00000000E+00  0.00000000E+00
  0.00000000E+00  0.00000000E+00  0.00000000E+00
  0.00000000E+00  0.00000000E+00  0.00000000E+00
  0.00000000E+00  0.00000000E+00  0.00000000E+00
  0.00000000E+00  0.00000000E+00  0.00000000E+00
  0.00000000E+00  0.00000000E+00  0.00000000E+00
  0.00000000E+00  0.00000000E+00  0.00000000E+00
  0.00000000E+00  0.00000000E+00  0.00000000E+00
  0.00000000E+00  0.00000000E+00  0.00000000E+00
  0.00000000E+00  0.00000000E+00  0.00000000E+00
  0.00000000E+00  0.00000000E+00  0.00000000E+00
  0.00000000E+00  0.00000000E+00  0.00000000E+00
  0.00000000E+00  0.00000000E+00  0.00000000E+00
  0.00000000E+00  0.00000000E+00  0.00000000E+00
  0.00000000E+00  0.00000000E+00  0.00000000E+00
  0.00000000E+00  0.00000000E+00  0.00000000E+00
  0.00000000E+00  0.00000000E+00  0.00000000E+00
  0.00000000E+00  0.00000000E+00  0.00000000E+00
  0.00000000E+00  0.00000000E+00  0.00000000E+00
  0.00000000E+00  0.00000000E+00  0.00000000E+00
  0.00000000E+00  0.00000000E+00  0.00000000E+00
  0.00000000E+00  0.00000000E+00  0.00000000E+00
  0.00000000E+00  0.00000000E+00  0.00000000E+00
  0.00000000E+00  0.00000000E+00  0.00000000E+00
  0.00000000E+00  0.00000000E+00  0.00000000E+00
  0.00000000E+00  0.00000000E+00  0.00000000E+00
  0.00000000E+00  0.00000000E+00  0.00000000E+00
  0.00000000E+00  0.00000000E+00  0.00000000E+00
  0.00000000E+00  0.00000000E+00  0.00000000E+00
  0.00000000E+00  0.00000000E+00  0.00000000E+00
  0.00000000E+00  0.00000000E+00  0.00000000E+00
  0.00000000E+00  0.00000000E+00  0.00000000E+00
  0.00000000E+00  0.00000000E+00  0.00000000E+00
  0.00000000E+00  0.00000000E+00  0.00000000E+00
  0.00000000E+00  0.00000000E+00  0.00000000E+00
  0.00000000E+00  0.00000000E+00  0.00000000E+00
  0.00000000E+00  0.00000000E+00  0.00000000E+00
  0.00000000E+00  0.00000000E+00  0.00000000E+00
  0.00000000E+00  0.00000000E+00  0.00000000E+00
  0.00000000E+00  0.00000000E+00  0.00000000E+00
  0.00000000E+00  0.00000000E+00  0.00000000E+00
  0.00000000E+00  0.00000000E+00  0.00000000E+00
  0.00000000E+00  0.00000000E+00  0.00000000E+00
  0.00000000E+00  0.00000000E+00  0.00000000E+00
  0.00000000E+00  0.00000000E+00  0.00000000E+00
  0.00000000E+00  0.00000000E+00  0.00000000E+00
  0.00000000E+00  0.00000000E+00  0.00000000E+00
  0.00000000E+00  0.00000000E+00  0.00000000E+00
  0.00000000E+00  0.00000000E+00  0.00000000E+00
  0.00000000E+00  0.00000000E+00  0.00000000E+00
  0.00000000E+00  0.00000000E+00  0.00000000E+00
  0.00000000E+00  0.00000000E+00  0.00000000E+00
  0.00000000E+00  0.00000000E+00  0.00000000E+00
  0.00000000E+00  0.00000000E+00  0.00000000E+00
  0.00000000E+00  0.00000000E+00  0.00000000E+00
  0.00000000E+00  0.00000000E+00  0.00000000E+00
  0.00000000E+00  0.00000000E+00  0.00000000E+00
  0.00000000E+00  0.00000000E+00  0.00000000E+00
  0.00000000E+00  0.00000000E+00  0.00000000E+00
  0.00000000E+00  0.00000000E+00  0.00000000E+00
  0.00000000E+00  0.00000000E+00  0.00000000E+00
  0.00000000E+00  0.00000000E+00  0.00000000E+00
  0.00000000E+00  0.00000000E+00  0.00000000E+00
  0.00000000E+00  0.00000000E+00  0.00000000E+00
  0.00000000E+00  0.00000000E+00  0.00000000E+00
  0.00000000E+00  0.00000000E+00  0.00000000E+00
  0.00000000E+00  0.00000000E+00  0.00000000E+00
  0.00000000E+00  0.00000000E+00  0.00000000E+00
  0.00000000E+00  0.00000000E+00  0.00000000E+00
  0.00000000E+00  0.00000000E+00  0.00000000E+00
  0.00000000E+00  0.00000000E+00  0.00000000E+00
  0.00000000E+00  0.00000000E+00  0.00000000E+00
  0.00000000E+00  0.00000000E+00  0.00000000E+00
  0.00000000E+00  0.00000000E+00  0.00000000E+00
  0.00000000E+00  0.00000000E+00  0.00000000E+00
  0.00000000E+00  0.00000000E+00  0.00000000E+00
  0.00000000E+00  0.00000000E+00  0.00000000E+00
  0.00000000E+00  0.00000000E+00  0.00000000E+00
  0.00000000E+00  0.00000000E+00  0.00000000E+00
  0.00000000E+00  0.00000000E+00  0.00000000E+00
  0.00000000E+00  0.00000000E+00  0.00000000E+00
  0.00000000E+00  0.00000000E+00  0.00000000E+00
  0.00000000E+00  0.00000000E+00  0.00000000E+00
  0.00000000E+00  0.00000000E+00  0.00000000E+00
  0.00000000E+00  0.00000000E+00  0.00000000E+00
  0.00000000E+00  0.00000000E+00  0.00000000E+00
  0.00000000E+00  0.00000000E+00  0.00000000E+00
  0.00000000E+00  0.00000000E+00  0.00000000E+00
  0.00000000E+00  0.00000000E+00  0.00000000E+00
  0.00000000E+00  0.00000000E+00  0.00000000E+00
  0.00000000E+00  0.00000000E+00  0.00000000E+00
  0.00000000E+00  0.00000000E+00  0.00000000E+00
  0.00000000E+00  0.00000000E+00  0.00000000E+00
  0.00000000E+00  0.00000000E+00  0.00000000E+00
  0.00000000E+00  0.00000000E+00  0.00000000E+00
  0.00000000E+00  0.00000000E+00  0.00000000E+00
  0.00000000E+00  0.00000000E+00  0.00000000E+00
  0.00000000E+00  0.00000000E+00  0.00000000E+00
  0.00000000E+00  0.00000000E+00  0.00000000E+00
  0.00000000E+00  0.00000000E+00  0.00000000E+00
  0.00000000E+00  0.00000000E+00  0.00000000E+00
  0.00000000E+00  0.00000000E+00  0.00000000E+00
  0.00000000E+00  0.00000000E+00  0.00000000E+00
  0.00000000E+00  0.00000000E+00  0.00000000E+00
  0.00000000E+00  0.00000000E+00  0.00000000E+00
  0.00000000E+00  0.00000000E+00  0.00000000E+00
  0.00000000E+00  0.00000000E+00  0.00000000E+00
  0.00000000E+00  0.00000000E+00  0.00000000E+00
  0.00000000E+00  0.00000000E+00  0.00000000E+00
  0.00000000E+00  0.00000000E+00  0.00000000E+00
