AutoCreatByScript: H C N
   1.00000000000000
    10.0000000000000000    0.0000000000000000    0.0000000000000000
     0.0000000000000000   11.0000000000000000    0.0000000000000000
     0.0000000000000000    0.0000000000000000   12.0000000000000000
   H    C    N
     5     5     1
Selective dynamics
Direct
  0.2747366482647068  0.4903915340509802  0.5215889072716917   T   T   T
  0.3789938951942005  0.6988517783394284  0.5232489007547653   T   T   T
  0.4246152504243330  0.3086521731493346  0.5259190676890002   T   T   T
  0.6303113741559860  0.7139622461163911  0.5268146382311795   T   T   T
  0.7645275302686905  0.5223170021102841  0.5305942482344131   T   T   T
  0.3831387090740562  0.5018044493264662  0.5241217342850690   T   T   T
  0.4411435216863596  0.6171424434448284  0.5246140704192288   T   T   T
  0.4670681633445569  0.4002936472738719  0.5264568366526646   T   T   T
  0.5803034959216976  0.6257583018397219  0.5270747121338779   T   T   T
  0.6551898519971301  0.5185625553767562  0.5291788885480588   T   T   T
  0.6011059251622808  0.4068438843759296  0.5292053444790420   T   T   T

  0.00000000E+00  0.00000000E+00  0.00000000E+00
  0.00000000E+00  0.00000000E+00  0.00000000E+00
  0.00000000E+00  0.00000000E+00  0.00000000E+00
  0.00000000E+00  0.00000000E+00  0.00000000E+00
  0.00000000E+00  0.00000000E+00  0.00000000E+00
  0.00000000E+00  0.00000000E+00  0.00000000E+00
  0.00000000E+00  0.00000000E+00  0.00000000E+00
  0.00000000E+00  0.00000000E+00  0.00000000E+00
  0.00000000E+00  0.00000000E+00  0.00000000E+00
  0.00000000E+00  0.00000000E+00  0.00000000E+00
  0.00000000E+00  0.00000000E+00  0.00000000E+00
