%BLOCK LATTICE_CART
      11.500559259999999       0.000000000000000       0.000000000000000
       0.156838760000000      11.619142320000000       0.000000000000000
       0.000000000000000       0.000000000000000      36.982615160000002
%ENDBLOCK LATTICE_CART

%BLOCK POSITIONS_FRAC
  H   0.1650012217971850   0.6654636891884120   0.8896844078846140
  H   0.2528446721967380   0.7890084864620049   0.8877634124607290
  H   0.0997045511739682   0.8036178210996270   0.8861994985932210
  H   0.5325443862528730   0.0969746486585907   0.7921096883480890
  H   0.6764525015523860   0.6791843705570119   0.8896844078846159
  H   0.7642959519519390   0.8027291678306039   0.8877634124607290
  H   0.6111558309291700   0.8173385024682269   0.8861994985932201
  H   0.6699494308416830   0.1588603334835140   0.8896844078846150
  H   0.7577928812412359   0.2824051307571070   0.8877634124607290
  H   0.6046527602184660   0.2970144653947290   0.8861994985932191
  H   0.1723248696083520   0.1660922979031090   0.8896844078846150
  H   0.2601683200079040   0.2896370951767010   0.8877634124607290
  H   0.1070281989851350   0.3042464298143239   0.8861994985932191
  H   0.5406400984369280   0.6064748977871880   0.7921096883480890
  H   0.0215526215919733   0.0917364872115419   0.7921096883480890
  H   0.0296483337760276   0.6012367363401390   0.7921096883480890
  C   0.1734738315956390   0.7503295136451780   0.8769833062708570
  C   0.1689563603372420   0.7479527297017670   0.8324988680432460
  C   0.6849251113508410   0.7640501950137780   0.8769833062708570
  C   0.6804076400924430   0.7616734110703669   0.8324988680432460
  C   0.6784220406401381   0.2437261579402800   0.8769833062708561
  C   0.6739045693817402   0.2413493739968690   0.8324988680432460
  C   0.1807974794068050   0.2509581223598740   0.8769833062708561
  C   0.1762800081484080   0.2485813384164630   0.8324988680432460
  O   0.2576766540420000   0.1090392789630000   0.1571940022260000
  O   0.7576766540420001   0.1090392789630000   0.1571940022260000
  O   0.2576766540420000   0.3590392789630000   0.1571940022260000
  O   0.7576766540420001   0.3590392789630000   0.1571940022260000
  O   0.2576766540420000   0.6090392789630000   0.1571940022260000
  O   0.7576766540420001   0.6090392789630000   0.1571940022260000
  O   0.2576766540420000   0.8590392789629999   0.1571940022260000
  O   0.7576766540420001   0.8590392789629999   0.1571940022260000
  O   0.4510134198390000   0.1053178914840000   0.1905809461730000
  O   0.9510134198389999   0.1053178914840000   0.1905809461730000
  O   0.4510134198390000   0.3553178914830000   0.1905809461730000
  O   0.9510134198389999   0.3553178914830000   0.1905809461730000
  O   0.4510134198390000   0.6053178914829999   0.1905809461730000
  O   0.9510134198390000   0.6053178914829999   0.1905809461730000
  O   0.4510134198390000   0.8553178914830000   0.1905809461730000
  O   0.9510134198390000   0.8553178914830000   0.1905809461730000
  O   0.1438536530590000   0.0794482897900001   0.2299782107170000
  O   0.6438536530590000   0.0794482897909999   0.2299782107170000
  O   0.1438536530590000   0.3294482897909999   0.2299782107170000
  O   0.6438536530589999   0.3294482897909999   0.2299782107170000
  O   0.1438536530590000   0.5794482897910001   0.2299782107170000
  O   0.6438536530589999   0.5794482897910001   0.2299782107170000
  O   0.1438536530590000   0.8294482897910001   0.2299782107170000
  O   0.6438536530590000   0.8294482897910001   0.2299782107170000
  O   0.3313775939840001   0.0760906963069999   0.2658669127310000
  O   0.8313775939839999   0.0760906963069999   0.2658669127310000
  O   0.3313775939840001   0.3260906963070000   0.2658669127310000
  O   0.8313775939839999   0.3260906963070000   0.2658669127310000
  O   0.3313775939840001   0.5760906963069999   0.2658669127310000
  O   0.8313775939839999   0.5760906963069999   0.2658669127310000
  O   0.3313775939840000   0.8260906963070001   0.2658669127310000
  O   0.8313775939840000   0.8260906963070001   0.2658669127310000
  O   0.0267850044880000   0.0517496505870000   0.2980542296280000
  O   0.5267850044880000   0.0517496505870000   0.2980542296280000
  O   0.0267850044880000   0.3017496505870000   0.2980542296280000
  O   0.5267850044879999   0.3017496505870000   0.2980542296280000
  O   0.0267850044879998   0.5517496505870000   0.2980542296280000
  O   0.5267850044880001   0.5517496505870000   0.2980542296280000
  O   0.0267850044879998   0.8017496505870000   0.2980542296280000
  O   0.5267850044880000   0.8017496505870000   0.2980542296280000
  O   0.2140582600770000   0.0466031546000002   0.3373785868100000
  O   0.7140582600770000   0.0466031546000002   0.3373785868100000
  O   0.2140582600770000   0.2966031546000000   0.3373785868100000
  O   0.7140582600769999   0.2966031546000000   0.3373785868100000
  O   0.2140582600770000   0.5466031546000000   0.3373785868100000
  O   0.7140582600770000   0.5466031546000000   0.3373785868100000
  O   0.2140582600770000   0.7966031546000000   0.3373785868100000
  O   0.7140582600769999   0.7966031546000000   0.3373785868100000
  O   0.4150411157500000   0.0190634553970001   0.3686328191860000
  O   0.9150411157500000   0.0190634553970001   0.3686328191860000
  O   0.4150411157500001   0.2690634553969999   0.3686328191860000
  O   0.9150411157499999   0.2690634553969999   0.3686328191860000
  O   0.4150411157500000   0.5190634553970001   0.3686328191860000
  O   0.9150411157500000   0.5190634553970001   0.3686328191860000
  O   0.4150411157500000   0.7690634553970001   0.3686328191860000
  O   0.9150411157499999   0.7690634553970001   0.3686328191860000
  O   0.1019400269480000   0.0130510632770001   0.4086726643020000
  O   0.6019400269479999   0.0130510632770001   0.4086726643020000
  O   0.1019400269480000   0.2630510632770000   0.4086726643020000
  O   0.6019400269480000   0.2630510632770000   0.4086726643020000
  O   0.1019400269480000   0.5130510632770000   0.4086726643020000
  O   0.6019400269479999   0.5130510632770000   0.4086726643020000
  O   0.1019400269480000   0.7630510632769999   0.4086726643020000
  O   0.6019400269479999   0.7630510632769999   0.4086726643020000
  O   0.3038495043440000   0.2339983098900000   0.4394426545280000
  O   0.8038495043430001   0.2339983098900000   0.4394426545280000
  O   0.3038495043440000   0.4839983098890000   0.4394426545280000
  O   0.8038495043429998   0.4839983098890000   0.4394426545280000
  O   0.3038495043440000   0.7339983098889999   0.4394426545280000
  O   0.8038495043430000   0.7339983098889999   0.4394426545280000
  O   0.3038495043439999   0.9839983098889999   0.4394426545280000
  O   0.8038495043430000   0.9839983098889999   0.4394426545280000
  O   0.4908696159420000   0.2277106519710000   0.4794381496910000
  O   0.9908696159420000   0.2277106519710000   0.4794381496910000
  O   0.4908696159420000   0.4777106519710000   0.4794381496910000
  O   0.9908696159420001   0.4777106519710000   0.4794381496910000
  O   0.4908696159420000   0.7277106519709999   0.4794381496910000
  O   0.9908696159420001   0.7277106519709999   0.4794381496910000
  O   0.4908696159420001   0.9777106519709999   0.4794381496910000
  O   0.9908696159420001   0.9777106519709999   0.4794381496910000
  O   0.1927790933380000   0.1986578985840000   0.5102081399170000
  O   0.6927790933380000   0.1986578985840000   0.5102081399170000
  O   0.1927790933380000   0.4486578985840000   0.5102081399170000
  O   0.6927790933380000   0.4486578985840000   0.5102081399170000
  O   0.1927790933380000   0.6986578985840000   0.5102081399170000
  O   0.6927790933379999   0.6986578985840000   0.5102081399170000
  O   0.1927790933380000   0.9486578985840000   0.5102081399170000
  O   0.6927790933380000   0.9486578985840000   0.5102081399170000
  O   0.3796780045360000   0.1926455064640000   0.5502479850330000
  O   0.8796780045350000   0.1926455064640000   0.5502479850330000
  O   0.3796780045360000   0.4426455064640000   0.5502479850330000
  O   0.8796780045350000   0.4426455064640000   0.5502479850330000
  O   0.3796780045360000   0.6926455064639999   0.5502479850330000
  O   0.8796780045350001   0.6926455064639999   0.5502479850330000
  O   0.3796780045360000   0.9426455064640000   0.5502479850330000
  O   0.8796780045350000   0.9426455064640000   0.5502479850330000
  O   0.0806608602090001   0.1651058072610000   0.5815022174100000
  O   0.5806608602089999   0.1651058072610000   0.5815022174100000
  O   0.0806608602090000   0.4151058072609999   0.5815022174100000
  O   0.5806608602090000   0.4151058072609999   0.5815022174100000
  O   0.0806608602090000   0.6651058072610000   0.5815022174100000
  O   0.5806608602090000   0.6651058072610000   0.5815022174100000
  O   0.0806608602090000   0.9151058072609999   0.5815022174100000
  O   0.5806608602090000   0.9151058072609999   0.5815022174100000
  O   0.2679341157980000   0.1599593112740000   0.6208265745910000
  O   0.7679341157980000   0.1599593112740000   0.6208265745910000
  O   0.2679341157980000   0.4099593112740000   0.6208265745910000
  O   0.7679341157980000   0.4099593112740000   0.6208265745910000
  O   0.2679341157980000   0.6599593112739999   0.6208265745910000
  O   0.7679341157980000   0.6599593112739999   0.6208265745910000
  O   0.2679341157980000   0.9099593112740000   0.6208265745910000
  O   0.7679341157980000   0.9099593112740000   0.6208265745910000
  O   0.4633415263020000   0.1356182655540000   0.6530138914890000
  O   0.9633415263020000   0.1356182655540000   0.6530138914890000
  O   0.4633415263020000   0.3856182655539999   0.6530138914890000
  O   0.9633415263019999   0.3856182655539999   0.6530138914890000
  O   0.4633415263020000   0.6356182655540000   0.6530138914890000
  O   0.9633415263020000   0.6356182655540000   0.6530138914890000
  O   0.4633415263020000   0.8856182655540000   0.6530138914890000
  O   0.9633415263020000   0.8856182655540000   0.6530138914890000
  O   0.1508654672270000   0.1322606720700000   0.6889025935020000
  O   0.6508654672269999   0.1322606720700000   0.6889025935020000
  O   0.1508654672270000   0.3822606720700000   0.6889025935020000
  O   0.6508654672270000   0.3822606720700000   0.6889025935020000
  O   0.1508654672270000   0.6322606720710000   0.6889025935020000
  O   0.6508654672270000   0.6322606720710000   0.6889025935020000
  O   0.1508654672270000   0.8822606720710000   0.6889025935020000
  O   0.6508654672269999   0.8822606720710000   0.6889025935020000
  O   0.3437057004470000   0.1063910703780000   0.7282998580470000
  O   0.8437057004470000   0.1063910703780000   0.7282998580470000
  O   0.3437057004469999   0.3563910703770000   0.7282998580470000
  O   0.8437057004470000   0.3563910703770000   0.7282998580470000
  O   0.3437057004469999   0.6063910703770000   0.7282998580470000
  O   0.8437057004470001   0.6063910703770000   0.7282998580470000
  O   0.3437057004470001   0.8563910703770000   0.7282998580470000
  O   0.8437057004470000   0.8563910703770000   0.7282998580470000
  O   0.0370424662440002   0.1026696828980000   0.7616868019930000
  O   0.5370424662440000   0.1026696828980000   0.7616868019930000
  O   0.0370424662439999   0.3526696828980000   0.7616868019930000
  O   0.5370424662440000   0.3526696828980000   0.7616868019930000
  O   0.0370424662439999   0.6026696828980001   0.7616868019930000
  O   0.5370424662440000   0.6026696828980001   0.7616868019930000
  O   0.0370424662439997   0.8526696828979999   0.7616868019930000
  O   0.5370424662440001   0.8526696828979999   0.7616868019930000
  O   0.1701886986586660   0.6548134275855700   0.8017624165263860
  O   0.1811685473667190   0.8032835548581560   0.7922030701788090
  O   0.6816399784138670   0.6685341089541700   0.8017624165263870
  O   0.6926198271219202   0.8170042362267560   0.7922030701788100
  O   0.6751369077031640   0.1482100718806720   0.8017624165263870
  O   0.6861167564112179   0.2966801991532579   0.7922030701788100
  O   0.1775123464698320   0.1554420363002660   0.8017624165263870
  O   0.1884921951778850   0.3039121635728520   0.7922030701788100
 Cu   0.3514013199520000   0.2322252650380000   0.1732265629580000
 Cu   0.8514013199520000   0.2322252650380000   0.1732265629580000
 Cu   0.3514013199520000   0.4822252650380000   0.1732265629580000
 Cu   0.8514013199520000   0.4822252650380000   0.1732265629580000
 Cu   0.3514013199520000   0.7322252650380000   0.1732265629580000
 Cu   0.8514013199520001   0.7322252650380000   0.1732265629580000
 Cu   0.3514013199520000   0.9822252650379999   0.1732265629580000
 Cu   0.8514013199520001   0.9822252650379999   0.1732265629580000
 Cu   0.1091788541650000   0.1063135477700000   0.1753522222390000
 Cu   0.6091788541650000   0.1063135477700000   0.1753522222390000
 Cu   0.1091788541650000   0.3563135477700000   0.1753522222390000
 Cu   0.6091788541650001   0.3563135477700000   0.1753522222390000
 Cu   0.1091788541650000   0.6063135477700000   0.1753522222390000
 Cu   0.6091788541650000   0.6063135477700000   0.1753522222390000
 Cu   0.1091788541650000   0.8563135477699999   0.1753522222390000
 Cu   0.6091788541650000   0.8563135477699999   0.1753522222390000
 Cu   0.4858086289250000   0.0791648511350000   0.2451354812840000
 Cu   0.9858086289250000   0.0791648511350000   0.2451354812840000
 Cu   0.4858086289249999   0.3291648511349999   0.2451354812840000
 Cu   0.9858086289250001   0.3291648511349999   0.2451354812840000
 Cu   0.4858086289250000   0.5791648511349999   0.2451354812840000
 Cu   0.9858086289250000   0.5791648511349999   0.2451354812840000
 Cu   0.4858086289249999   0.8291648511350001   0.2451354812840000
 Cu   0.9858086289250000   0.8291648511350001   0.2451354812840000
 Cu   0.2349819969490000   0.2027929979210000   0.2484997469500000
 Cu   0.7349819969490001   0.2027929979210000   0.2484997469500000
 Cu   0.2349819969490000   0.4527929979209999   0.2484997469500000
 Cu   0.7349819969490001   0.4527929979209999   0.2484997469500000
 Cu   0.2349819969490000   0.7027929979210000   0.2484997469500000
 Cu   0.7349819969490001   0.7027929979210000   0.2484997469500000
 Cu   0.2349819969490000   0.9527929979210000   0.2484997469500000
 Cu   0.7349819969490000   0.9527929979210000   0.2484997469500000
 Cu   0.3710277962250000   0.0490521296470000   0.3176293552430000
 Cu   0.8710277962250002   0.0490521296470000   0.3176293552430000
 Cu   0.3710277962250000   0.2990521296459999   0.3176293552430000
 Cu   0.8710277962250000   0.2990521296459999   0.3176293552430000
 Cu   0.3710277962250000   0.5490521296459999   0.3176293552430000
 Cu   0.8710277962250000   0.5490521296459999   0.3176293552430000
 Cu   0.3710277962250000   0.7990521296459999   0.3176293552430000
 Cu   0.8710277962250000   0.7990521296459999   0.3176293552430000
 Cu   0.1196044839550000   0.1742309946010000   0.3179494819200000
 Cu   0.6196044839559999   0.1742309946010000   0.3179494819200000
 Cu   0.1196044839550000   0.4242309946010000   0.3179494819200000
 Cu   0.6196044839560001   0.4242309946010000   0.3179494819200000
 Cu   0.1196044839550000   0.6742309946010000   0.3179494819200000
 Cu   0.6196044839560000   0.6742309946010000   0.3179494819200000
 Cu   0.1196044839550000   0.9242309946009999   0.3179494819200000
 Cu   0.6196044839560000   0.9242309946009999   0.3179494819200000
 Cu   0.2584190681880000   0.0159465162620000   0.3884707030070000
 Cu   0.7584190681879999   0.0159465162620000   0.3884707030070000
 Cu   0.2584190681880000   0.2659465162620000   0.3884707030070000
 Cu   0.7584190681880000   0.2659465162620000   0.3884707030070000
 Cu   0.2584190681880000   0.5159465162620001   0.3884707030070000
 Cu   0.7584190681879999   0.5159465162620001   0.3884707030070000
 Cu   0.2584190681880000   0.7659465162620001   0.3884707030070000
 Cu   0.7584190681879999   0.7659465162620001   0.3884707030070000
 Cu   0.0082964365100000   0.1411068287870000   0.3887053947780000
 Cu   0.5082964365100000   0.1411068287870000   0.3887053947780000
 Cu   0.0082964365100000   0.3911068287870000   0.3887053947780000
 Cu   0.5082964365100001   0.3911068287870000   0.3887053947780000
 Cu   0.0082964365100000   0.6411068287869999   0.3887053947780000
 Cu   0.5082964365100000   0.6411068287869999   0.3887053947780000
 Cu   0.0082964365100000   0.8911068287869999   0.3887053947780000
 Cu   0.5082964365100000   0.8911068287869999   0.3887053947780000
 Cu   0.3973595601430000   0.1058544809300000   0.4594404021100000
 Cu   0.8973595601429999   0.1058544809300000   0.4594404021100000
 Cu   0.1473595601430000   0.2308544809310000   0.4594404021100000
 Cu   0.6473595601429999   0.2308544809310000   0.4594404021100000
 Cu   0.3973595601430001   0.3558544809300000   0.4594404021100000
 Cu   0.8973595601429998   0.3558544809300000   0.4594404021100000
 Cu   0.1473595601430000   0.4808544809300000   0.4594404021100000
 Cu   0.6473595601430000   0.4808544809300000   0.4594404021100000
 Cu   0.3973595601430000   0.6058544809300001   0.4594404021100000
 Cu   0.8973595601430000   0.6058544809300001   0.4594404021100000
 Cu   0.1473595601430000   0.7308544809300001   0.4594404021100000
 Cu   0.6473595601430000   0.7308544809300001   0.4594404021100000
 Cu   0.3973595601430000   0.8558544809299999   0.4594404021100000
 Cu   0.8973595601430000   0.8558544809299999   0.4594404021100000
 Cu   0.1473595601430000   0.9808544809300001   0.4594404021100000
 Cu   0.6473595601430000   0.9808544809300001   0.4594404021100000
 Cu   0.2864226837750000   0.0706021330740000   0.5301754094420000
 Cu   0.7864226837760000   0.0706021330740000   0.5301754094420000
 Cu   0.2864226837750000   0.3206021330740000   0.5301754094420000
 Cu   0.7864226837759988   0.3206021330740000   0.5301754094420000
 Cu   0.2864226837750000   0.5706021330739999   0.5301754094420000
 Cu   0.7864226837760011   0.5706021330739999   0.5301754094420000
 Cu   0.2864226837750001   0.8206021330739999   0.5301754094420000
 Cu   0.7864226837760001   0.8206021330739999   0.5301754094420000
 Cu   0.0363000520980000   0.1957624455990000   0.5304101012130000
 Cu   0.5363000520980000   0.1957624455990000   0.5304101012130000
 Cu   0.0363000520980000   0.4457624455990000   0.5304101012130000
 Cu   0.5363000520980000   0.4457624455990000   0.5304101012130000
 Cu   0.0363000520980000   0.6957624455989999   0.5304101012130000
 Cu   0.5363000520980000   0.6957624455989999   0.5304101012130000
 Cu   0.0363000520980000   0.9457624455990000   0.5304101012130000
 Cu   0.5363000520980001   0.9457624455990000   0.5304101012130000
 Cu   0.1751146363300000   0.0374779672610000   0.6009313223000000
 Cu   0.6751146363300000   0.0374779672610000   0.6009313223000000
 Cu   0.1751146363300000   0.2874779672610000   0.6009313223000000
 Cu   0.6751146363300000   0.2874779672610000   0.6009313223000000
 Cu   0.1751146363300000   0.5374779672600000   0.6009313223000000
 Cu   0.6751146363300000   0.5374779672600000   0.6009313223000000
 Cu   0.1751146363300000   0.7874779672600000   0.6009313223000000
 Cu   0.6751146363300000   0.7874779672600000   0.6009313223000000
 Cu   0.4236913240610001   0.1626568322150000   0.6012514489770000
 Cu   0.9236913240610000   0.1626568322150000   0.6012514489770000
 Cu   0.4236913240610000   0.4126568322140000   0.6012514489770000
 Cu   0.9236913240610000   0.4126568322140000   0.6012514489770000
 Cu   0.4236913240610000   0.6626568322140000   0.6012514489770000
 Cu   0.9236913240610000   0.6626568322140000   0.6012514489770000
 Cu   0.4236913240610000   0.9126568322140000   0.6012514489770000
 Cu   0.9236913240610000   0.9126568322140000   0.6012514489770000
 Cu   0.0597371233370000   0.0089159639400000   0.6703810572700000
 Cu   0.5597371233370000   0.0089159639400000   0.6703810572700000
 Cu   0.0597371233370000   0.2589159639400000   0.6703810572700000
 Cu   0.5597371233369999   0.2589159639400000   0.6703810572700000
 Cu   0.0597371233370000   0.5089159639400001   0.6703810572700000
 Cu   0.5597371233369999   0.5089159639400001   0.6703810572700000
 Cu   0.0597371233370000   0.7589159639400001   0.6703810572700000
 Cu   0.5597371233370000   0.7589159639400001   0.6703810572700000
 Cu   0.3089104913610001   0.1325441107260000   0.6737453229360000
 Cu   0.8089104913610000   0.1325441107260000   0.6737453229360000
 Cu   0.3089104913610000   0.3825441107260000   0.6737453229360000
 Cu   0.8089104913609999   0.3825441107260000   0.6737453229360000
 Cu   0.3089104913610001   0.6325441107260000   0.6737453229360000
 Cu   0.8089104913609989   0.6325441107260000   0.6737453229360000
 Cu   0.3089104913610000   0.8825441107260000   0.6737453229360000
 Cu   0.8089104913609999   0.8825441107260000   0.6737453229360000
 Cu   0.1855402661210000   0.1053954140910000   0.7435285819800001
 Cu   0.6855402661210001   0.1053954140910000   0.7435285819800001
 Cu   0.1855402661209990   0.3553954140910000   0.7435285819800001
 Cu   0.6855402661210001   0.3553954140910000   0.7435285819800001
 Cu   0.1855402661210000   0.6053954140910000   0.7435285819800001
 Cu   0.6855402661210001   0.6053954140910000   0.7435285819800001
 Cu   0.1855402661210000   0.8553954140910000   0.7435285819800001
 Cu   0.6855402661210001   0.8553954140910000   0.7435285819800001
 Cu   0.4433178003340000   0.2294836968230000   0.7456542412610000
 Cu   0.9433178003340000   0.2294836968230000   0.7456542412610000
 Cu   0.4433178003340000   0.4794836968230000   0.7456542412610000
 Cu   0.9433178003340000   0.4794836968230000   0.7456542412610000
 Cu   0.4433178003339999   0.7294836968229999   0.7456542412610000
 Cu   0.9433178003340000   0.7294836968229999   0.7456542412610000
 Cu   0.4433178003339999   0.9794836968229999   0.7456542412610000
 Cu   0.9433178003340000   0.9794836968229999   0.7456542412610000
%ENDBLOCK POSITIONS_FRAC

%BLOCK KPOINTS_LIST
   0.2500000000000000   0.2500000000000000   0.0000000000000000       0.500000000000000
   0.2500000000000000  -0.2500000000000000   0.0000000000000000       0.500000000000000
%ENDBLOCK KPOINTS_LIST

FIX_ALL_CELL : true

FIX_COM : false
%BLOCK IONIC_CONSTRAINTS
       1       O      49   1.0000000000000000   0.0000000000000000   0.0000000000000000
       2       O      49   0.0000000000000000   1.0000000000000000   0.0000000000000000
       3       O      49   0.0000000000000000   0.0000000000000000   1.0000000000000000
       4       O      50   1.0000000000000000   0.0000000000000000   0.0000000000000000
       5       O      50   0.0000000000000000   1.0000000000000000   0.0000000000000000
       6       O      50   0.0000000000000000   0.0000000000000000   1.0000000000000000
       7       O      51   1.0000000000000000   0.0000000000000000   0.0000000000000000
       8       O      51   0.0000000000000000   1.0000000000000000   0.0000000000000000
       9       O      51   0.0000000000000000   0.0000000000000000   1.0000000000000000
      10       O      52   1.0000000000000000   0.0000000000000000   0.0000000000000000
      11       O      52   0.0000000000000000   1.0000000000000000   0.0000000000000000
      12       O      52   0.0000000000000000   0.0000000000000000   1.0000000000000000
      13       O      53   1.0000000000000000   0.0000000000000000   0.0000000000000000
      14       O      53   0.0000000000000000   1.0000000000000000   0.0000000000000000
      15       O      53   0.0000000000000000   0.0000000000000000   1.0000000000000000
      16       O      54   1.0000000000000000   0.0000000000000000   0.0000000000000000
      17       O      54   0.0000000000000000   1.0000000000000000   0.0000000000000000
      18       O      54   0.0000000000000000   0.0000000000000000   1.0000000000000000
      19       O      55   1.0000000000000000   0.0000000000000000   0.0000000000000000
      20       O      55   0.0000000000000000   1.0000000000000000   0.0000000000000000
      21       O      55   0.0000000000000000   0.0000000000000000   1.0000000000000000
      22       O      56   1.0000000000000000   0.0000000000000000   0.0000000000000000
      23       O      56   0.0000000000000000   1.0000000000000000   0.0000000000000000
      24       O      56   0.0000000000000000   0.0000000000000000   1.0000000000000000
      25       O      57   1.0000000000000000   0.0000000000000000   0.0000000000000000
      26       O      57   0.0000000000000000   1.0000000000000000   0.0000000000000000
      27       O      57   0.0000000000000000   0.0000000000000000   1.0000000000000000
      28       O      58   1.0000000000000000   0.0000000000000000   0.0000000000000000
      29       O      58   0.0000000000000000   1.0000000000000000   0.0000000000000000
      30       O      58   0.0000000000000000   0.0000000000000000   1.0000000000000000
      31       O      59   1.0000000000000000   0.0000000000000000   0.0000000000000000
      32       O      59   0.0000000000000000   1.0000000000000000   0.0000000000000000
      33       O      59   0.0000000000000000   0.0000000000000000   1.0000000000000000
      34       O      60   1.0000000000000000   0.0000000000000000   0.0000000000000000
      35       O      60   0.0000000000000000   1.0000000000000000   0.0000000000000000
      36       O      60   0.0000000000000000   0.0000000000000000   1.0000000000000000
      37       O      61   1.0000000000000000   0.0000000000000000   0.0000000000000000
      38       O      61   0.0000000000000000   1.0000000000000000   0.0000000000000000
      39       O      61   0.0000000000000000   0.0000000000000000   1.0000000000000000
      40       O      62   1.0000000000000000   0.0000000000000000   0.0000000000000000
      41       O      62   0.0000000000000000   1.0000000000000000   0.0000000000000000
      42       O      62   0.0000000000000000   0.0000000000000000   1.0000000000000000
      43       O      63   1.0000000000000000   0.0000000000000000   0.0000000000000000
      44       O      63   0.0000000000000000   1.0000000000000000   0.0000000000000000
      45       O      63   0.0000000000000000   0.0000000000000000   1.0000000000000000
      46       O      64   1.0000000000000000   0.0000000000000000   0.0000000000000000
      47       O      64   0.0000000000000000   1.0000000000000000   0.0000000000000000
      48       O      64   0.0000000000000000   0.0000000000000000   1.0000000000000000
      49       O      65   1.0000000000000000   0.0000000000000000   0.0000000000000000
      50       O      65   0.0000000000000000   1.0000000000000000   0.0000000000000000
      51       O      65   0.0000000000000000   0.0000000000000000   1.0000000000000000
      52       O      66   1.0000000000000000   0.0000000000000000   0.0000000000000000
      53       O      66   0.0000000000000000   1.0000000000000000   0.0000000000000000
      54       O      66   0.0000000000000000   0.0000000000000000   1.0000000000000000
      55       O      67   1.0000000000000000   0.0000000000000000   0.0000000000000000
      56       O      67   0.0000000000000000   1.0000000000000000   0.0000000000000000
      57       O      67   0.0000000000000000   0.0000000000000000   1.0000000000000000
      58       O      68   1.0000000000000000   0.0000000000000000   0.0000000000000000
      59       O      68   0.0000000000000000   1.0000000000000000   0.0000000000000000
      60       O      68   0.0000000000000000   0.0000000000000000   1.0000000000000000
      61       O      69   1.0000000000000000   0.0000000000000000   0.0000000000000000
      62       O      69   0.0000000000000000   1.0000000000000000   0.0000000000000000
      63       O      69   0.0000000000000000   0.0000000000000000   1.0000000000000000
      64       O      70   1.0000000000000000   0.0000000000000000   0.0000000000000000
      65       O      70   0.0000000000000000   1.0000000000000000   0.0000000000000000
      66       O      70   0.0000000000000000   0.0000000000000000   1.0000000000000000
      67       O      71   1.0000000000000000   0.0000000000000000   0.0000000000000000
      68       O      71   0.0000000000000000   1.0000000000000000   0.0000000000000000
      69       O      71   0.0000000000000000   0.0000000000000000   1.0000000000000000
      70       O      72   1.0000000000000000   0.0000000000000000   0.0000000000000000
      71       O      72   0.0000000000000000   1.0000000000000000   0.0000000000000000
      72       O      72   0.0000000000000000   0.0000000000000000   1.0000000000000000
      73       O      73   1.0000000000000000   0.0000000000000000   0.0000000000000000
      74       O      73   0.0000000000000000   1.0000000000000000   0.0000000000000000
      75       O      73   0.0000000000000000   0.0000000000000000   1.0000000000000000
      76       O      74   1.0000000000000000   0.0000000000000000   0.0000000000000000
      77       O      74   0.0000000000000000   1.0000000000000000   0.0000000000000000
      78       O      74   0.0000000000000000   0.0000000000000000   1.0000000000000000
      79       O      75   1.0000000000000000   0.0000000000000000   0.0000000000000000
      80       O      75   0.0000000000000000   1.0000000000000000   0.0000000000000000
      81       O      75   0.0000000000000000   0.0000000000000000   1.0000000000000000
      82       O      76   1.0000000000000000   0.0000000000000000   0.0000000000000000
      83       O      76   0.0000000000000000   1.0000000000000000   0.0000000000000000
      84       O      76   0.0000000000000000   0.0000000000000000   1.0000000000000000
      85       O      77   1.0000000000000000   0.0000000000000000   0.0000000000000000