#----------/Base Parameter/----------# 
  SYSTEM = AutoGenerated 
  PREC = Accurate 
  ISTART = 0 
  ENCUT = 400.0 
  NELM = 150 
  NELMIN = 2 
  EDIFF = 1e-05 
  EDIFFG = -0.05 
  ISPIN = 2 
  GGA = PE 
  LWAVE = .FALSE.

#----------/SCF Parameter/----------# 
  AMIX = 0.2 
  BMIX = 0.0001 
  AMIX_MAG = 0.8 
  BMIX_MAG = 0.0001 
#----------/Optimize Parameter/----------# 
  IBRION = 3 
  NSW = 500 
  POTIM = 0.0 
  ISIF = 2 
#----------/Charge Parameter/----------# 
  LCHARG = .FALSE. 
  LREAL = Auto 
  ALGO = All 
  ISMEAR = 0 
  SIGMA = 0.05 
#----------/VTST optimizer Parameter/----------# 
  ICHAIN = 0 
  IOPT = 3 
#----------/NEB Parameter/----------# 
  SPRING = -5.0 
  LCLIMB = .FALSE. 
  MAXMOVE = 0.03 
  IMAGES = 4 
#----------/+U Parameter/----------# 
  LDAU = .TRUE. 
  LDAUTYPE = 2 
  LDAUL = -1 
  LDAUU = 0.0 
  LDAUJ = 0.0 
  LDAUPRINT = 2 
  LMAXMIX = 4 
