AutoCreatByScript: H O Ce               
   1.00000000000000     
     7.7074600000000002    0.0000000000000000    0.0000000000000000
     0.0000000000000000    7.7074600000000002    0.0000000000000000
     0.0000000000000000    0.0000000000000000   22.8999999999999986
   H    O    Ce
     2    34    16
Selective dynamics
Direct
0.2722051491293627	0.1691816095223438	0.4895963824150024	T	T	T	
0.8496344120763895	0.6333374877098967	0.4820652766110171	T	T	T	
0.0578700000000012	0.1278289999999984	0.009641000000002	F	F	F	
0.5578700000000012	0.1278289999999984	0.009641000000002	F	F	F	
0.0578700000000012	0.6278289999999984	0.009641000000002	F	F	F	
0.5578700000000012	0.6278289999999984	0.009641000000002	F	F	F	
0.8078700000000012	0.3778289999999984	0.1081069999999968	F	F	F	
0.3078700000000012	0.3778289999999984	0.1081069999999968	F	F	F	
0.8078700000000012	0.8778289999999984	0.1081069999999968	F	F	F	
0.3078700000000012	0.8778289999999984	0.1081069999999968	F	F	F	
0.5578700000000012	0.1278289999999984	0.1240510000000015	F	F	F	
0.0578700000000012	0.1278289999999984	0.1240510000000015	F	F	F	
0.0578700000000012	0.6278289999999984	0.1240510000000015	F	F	F	
0.5578700000000012	0.6278289999999984	0.1240510000000015	F	F	F	
0.5578700000000012	0.1278289999999984	0.237991000000001	F	F	F	
0.0578700000000012	0.1278289999999984	0.237991000000001	F	F	F	
0.8078700000000012	0.3778289999999984	0.237991000000001	F	F	F	
0.3078700000000012	0.3778289999999984	0.237991000000001	F	F	F	
0.0578700000000012	0.6278289999999984	0.237991000000001	F	F	F	
0.5578700000000012	0.6278289999999984	0.237991000000001	F	F	F	
0.3078700000000012	0.8778289999999984	0.237991000000001	F	F	F	
0.8078700000000012	0.8778289999999984	0.237991000000001	F	F	F	
0.5582789527076197	0.6291205185431825	0.3528031146492897	T	T	T	
0.0605365720208057	0.125617012566365	0.358033996662048	T	T	T	
0.3070474646466684	0.3809794397525081	0.3568205808470729	T	T	T	
0.5553865421730463	0.1283397787336332	0.3521319942968636	T	T	T	
0.064343458377102	0.6308204820813268	0.356628230386033	T	T	T	
0.8115019310733806	0.8787235946717775	0.3637520610680715	T	T	T	
0.813102498901046	0.3782136355436402	0.3650455937488295	T	T	T	
0.3098875675079918	0.8761752731361937	0.3679614344862591	T	T	T	
0.2097628215795983	0.0452516952534346	0.4945143200551202	T	T	T	
0.6092932857279524	0.6384423286598483	0.4664070594980936	T	T	T	
0.2956447389060183	0.3480185725165007	0.4707368492641116	T	T	T	
0.6181109783057511	0.124325558300082	0.4638932221916782	T	T	T	
0.0322607648185607	0.1029407756631047	0.4806086044978519	T	T	T	
0.9747498313519216	0.633050912169948	0.4705738679036689	T	T	T	
0.3078700000000012	0.1278289999999984	0.0559190000000029	F	F	F	
0.8078700000000012	0.1278289999999984	0.0559190000000029	F	F	F	
0.3078700000000012	0.6278289999999984	0.0559190000000029	F	F	F	
0.8078700000000012	0.6278289999999984	0.0559190000000029	F	F	F	
0.5578700000000012	0.3778289999999984	0.1776169999999979	F	F	F	
0.0578700000000012	0.3778289999999984	0.1776169999999979	F	F	F	
0.0578700000000012	0.8778289999999984	0.1776169999999979	F	F	F	
0.5578700000000012	0.8778289999999984	0.1776169999999979	F	F	F	
0.3099892963381682	0.1296734366815349	0.2978538515820097	T	T	T	
0.3117291664179668	0.6277757802836893	0.2976463227451241	T	T	T	
0.806569583561757	0.6261194361247602	0.2989221510801821	T	T	T	
0.8060372106557152	0.1302231334980631	0.2987141916674647	T	T	T	
0.0580868349935782	0.8763367359544165	0.4158579217925094	T	T	T	
0.5658905148095573	0.881769655677409	0.4205543105959562	T	T	T	
0.5480193648484389	0.3786022010205514	0.4227996093588837	T	T	T	
0.0689368430058582	0.3796482858916173	0.417551631904318	T	T	T	
