AutoCreatByScript: H C O Ca Ce          
   1.00000000000000     
     7.7074639100000004    0.0000000000000000    0.0000000000000000
     0.0000000000000000    7.7074639100000004    0.0000000000000000
     0.0000000000000000    0.0000000000000000   28.3500000000000014
   H    C    O    Ca   Ce
     4     1    43     1    21
Selective dynamics
Direct
0.1564574711877628	0.8332197871570831	0.5624346699394761	T	T	T	
0.6509616841715689	0.8813545478759702	0.5992247419753703	T	T	T	
0.3953723229384977	0.9817300529068933	0.552126407628807	T	T	T	
0.8337889222655726	0.7139057310965186	0.600317263396132	T	T	T	
0.7527637199781438	0.8074559832408295	0.5809209068220634	T	T	T	
0.4707218781110001	0.1267433621249978	0.0439666126509977	F	F	F	
0.4707218781110001	0.6175124637530018	0.0439666126509977	F	F	F	
0.2200889003029971	0.3721279129389998	0.0444058595140007	F	F	F	
0.7213548559190031	0.3721279129389998	0.0444058595140007	F	F	F	
0.1767245727929989	0.8721279129389998	0.0556367782330014	F	F	F	
0.7647191834290012	0.8721279129389998	0.0556367782330014	F	F	F	
0.9707218781110001	0.1220066518700023	0.1356400863599987	F	F	F	
0.9707218781110001	0.6222491740079974	0.1356400863599987	F	F	F	
0.4707218781110001	0.1182811935459966	0.1411906655259969	F	F	F	
0.4707218781110001	0.625974632332003	0.1411906655259969	F	F	F	
0.7182492702090002	0.3721279129389998	0.1429821293399982	F	F	F	
0.223194486013	0.3721279129389998	0.1429821293399982	F	F	F	
0.223885162400002	0.8721279129389998	0.147455230151003	F	F	F	
0.7175585938219982	0.8721279129389998	0.147455230151003	F	F	F	
0.9707218781110001	0.1229774650790034	0.2374094768929993	F	F	F	
0.9707218781110001	0.6212783607990033	0.2374094768929993	F	F	F	
0.2192750845510005	0.3721279129389998	0.239578198213998	F	F	F	
0.7221686716709996	0.3721279129389998	0.239578198213998	F	F	F	
0.4707218781110001	0.1238098099969989	0.2398257752070023	F	F	F	
0.4707218781110001	0.6204460158810008	0.2398257752070023	F	F	F	
0.21887674237	0.8721279129389998	0.2413681496390012	F	F	F	
0.7225670138520002	0.8721279129389998	0.2413681496390012	F	F	F	
0.2190465376065224	0.8719096731467908	0.3361877319537008	T	T	T	
0.7207674466001096	0.8721297588202912	0.337736031600842	T	T	T	
0.2197219067521203	0.372607627974134	0.3352201417775404	T	T	T	
0.4690083870226324	0.1227737373141621	0.3378279834021451	T	T	T	
0.9706573683414863	0.6214801522428307	0.3380756121858575	T	T	T	
0.4695441544715045	0.6215807389835023	0.3380962823167342	T	T	T	
0.7205993011371064	0.3717090742942175	0.3362608855549199	T	T	T	
0.9711729599507141	0.1227677574026491	0.3380948780575866	T	T	T	
0.2196705155114744	0.8753372154686828	0.4312095767793533	T	T	T	
0.7173238293326235	0.8701923172886922	0.4352902050786202	T	T	T	
0.2193647805195976	0.3714735897862984	0.4298397338981991	T	T	T	
0.7200932866038107	0.3744304809729947	0.4328296835977074	T	T	T	
0.9649472352454173	0.6205041536158378	0.438025398576824	T	T	T	
0.4718136652473137	0.1240314603936717	0.4370385690537787	T	T	T	
0.4742485363495954	0.6218586509142948	0.4382318670598006	T	T	T	
0.9651090633525748	0.1232266212747951	0.4390821671591024	T	T	T	
0.788915569470843	0.8427872347124225	0.5367254722977569	T	T	T	
0.2382685839125133	0.8497341691703509	0.536716358898799	T	T	T	
0.4752380278690571	0.0871932356349432	0.5507974531819525	T	T	T	
0.242289771459349	0.3953397633564458	0.534487747984535	T	T	T	
0.6777567719198361	0.4015171139614137	0.5331508095398474	T	T	T	
0.2197750861905096	0.6213318242983029	0.4779636713886085	T	T	T	
0.4707218781110001	0.3721279129389998	0.0108776225649976	F	F	F	
0.227933528229002	0.1104791473980029	0.0933765719659974	F	F	F	
0.7135102279929981	0.1104791473980029	0.0933765719659974	F	F	F	
0.227933528229002	0.6337766784799967	0.0933765719659974	F	F	F	
0.7135102279929981	0.6337766784799967	0.0933765719659974	F	F	F	
0.9707218781110001	0.3721279129389998	0.1883090858890029	F	F	F	
0.4707218781110001	0.3721279129389998	0.1905838345849986	F	F	F	
0.9707218781110001	0.8721279129389998	0.1907857983689993	F	F	F	
0.4707218781110001	0.8721279129389998	0.1934945990250014	F	F	F	
0.2193600656850023	0.1239652678969989	0.2883597883599975	F	F	F	
0.7220836905369978	0.1239652678969989	0.2883597883599975	F	F	F	
0.2193600656850023	0.6202905579810007	0.2883597883599975	F	F	F	
0.7220836905369978	0.6202905579810007	0.2883597883599975	F	F	F	
0.4662684245905143	0.8723022700285423	0.3860620564829789	T	T	T	
0.9721628425015922	0.8733233342134004	0.3868926433699039	T	T	T	
0.4663967308751933	0.3725389711555023	0.3854901792766496	T	T	T	
0.9728538836639853	0.3710664220571924	0.3860695083871805	T	T	T	
0.7205109176817628	0.6172825481474845	0.4765493614109302	T	T	T	
0.7114861879592919	0.1260651123304363	0.4839132256692638	T	T	T	
0.2222645236091191	0.1268408224062302	0.4814438923168388	T	T	T	
0.4561530531984845	0.363076677385786	0.5790980277121377	T	T	T	
