H    O    Ce
   1.00000000000000     
  11.5611999999999995   0.0000000000000000   0.0000000000000000
  -5.7805999999999997  10.0122929000000003   0.0000000000000000
   0.0000000000000000   0.0000000000000000  26.0129599999999996
H    O    Ce
2  72  36  
Selective dynamics
Direct
  0.5043708665925339  0.5947194516036142  0.5095346416142662 T T T
  0.3875993666905876  0.5363005411473077  0.4938838117766501 T T T
  0.1097539651606212  0.0639520721078171  0.0259129132434381 F F F
  0.4430870693274896  0.0639520721078171  0.0259129132434381 F F F
  0.7764208609940511  0.0639520721078171  0.0259129132434381 F F F
  0.1097539651606316  0.3972858637743921  0.0259129132434381 F F F
  0.4430870693274898  0.3972858637743921  0.0259129132434381 F F F
  0.7764208609940511  0.3972858637743921  0.0259129132434381 F F F
  0.1097539651606349  0.7306189679412672  0.0259129132434381 F F F
  0.4430870693275035  0.7306189679412672  0.0259129132434381 F F F
  0.7764208609940511  0.7306189679412672  0.0259129132434381 F F F
  0.3319760346053119  0.1750631068300057  0.0877169228987427 F F F
  0.6653091387718743  0.1750631068300057  0.0877169228987427 F F F
  0.9986429304384415  0.1750631068300057  0.0877169228987427 F F F
  0.3319760346053117  0.5083968984965640  0.0877169228987427 F F F
  0.6653091387718746  0.5083968984965640  0.0877169228987427 F F F
  0.9986429304384428  0.5083968984965640  0.0877169228987427 F F F
  0.3319760346053119  0.8417300026634470  0.0877169228987427 F F F
  0.6653091387718746  0.8417300026634470  0.0877169228987427 F F F
  0.9986429304384430  0.8417300026634470  0.0877169228987427 F F F
  0.2208649998828211  0.2861741415521991  0.1472711049609288 F F F
  0.5541981040496966  0.2861741415521991  0.1472711049609288 F F F
  0.8875318957162381  0.2861741415521991  0.1472711049609288 F F F
  0.2208649998828067  0.6195079332187635  0.1472711049609288 F F F
  0.5541981040496965  0.6195079332187635  0.1472711049609288 F F F
  0.8875318957162577  0.6195079332187635  0.1472711049609288 F F F
  0.2208649998828322  0.9528410373856668  0.1472711049609288 F F F
  0.5541981040497127  0.9528410373856668  0.1472711049609288 F F F
  0.8875318957162661  0.9528410373856668  0.1472711049609288 F F F
  0.1097539651606212  0.0639520721078171  0.2096169767509437 F F F
  0.4430870693274896  0.0639520721078171  0.2096169767509437 F F F
  0.7764208609940511  0.0639520721078171  0.2096169767509437 F F F
  0.1097539651606316  0.3972858637743921  0.2096169767509437 F F F
  0.4430870693274898  0.3972858637743921  0.2096169767509437 F F F
  0.7764208609940511  0.3972858637743921  0.2096169767509437 F F F
  0.1097539651606349  0.7306189679412672  0.2096169767509437 F F F
  0.4430870693275035  0.7306189679412672  0.2096169767509437 F F F
  0.7764208609940511  0.7306189679412672  0.2096169767509437 F F F
  0.3326137855538331  0.1753778029358020  0.2715444185783025 T T T
  0.6642590348049514  0.1745099225197600  0.2721274871777858 T T T
  0.9988408069332794  0.1750501950851183  0.2713273433621904 T T T
  0.3321669829244207  0.5084671879983952  0.2719844202006941 T T T
  0.6651227790569688  0.5076853205874148  0.2714312568964326 T T T
  0.9988520367223124  0.5085754860165662  0.2713261679956371 T T T
  0.3325984301855202  0.8420084139619542  0.2715481071685158 T T T
  0.6651311418512930  0.8422350721937465  0.2714307504872632 T T T
  0.9987701765187670  0.8417794788476463  0.2712772324812565 T T T
  0.2207202045635474  0.2848659283424665  0.3339737994959314 T T T
  0.5527682312517826  0.2876004848241122  0.3350072590481488 T T T
  0.8892913246780836  0.2870329923006255  0.3335731716316059 T T T
  0.2207058008891244  0.6205913989650640  0.3339716492534792 T T T
  0.5566843506035327  0.6207256296932031  0.3335310020605213 T T T
  0.8872133532966969  0.6190955616649321  0.3337034270678781 T T T
  0.2213302706908785  0.9530431462193524  0.3337849192576048 T T T
  0.5527441047350627  0.9498911021018748  0.3350111759450281 T T T
  0.8872129272053531  0.9528928726177820  0.3337111129502506 T T T
  0.1091094350840149  0.0625116258607302  0.3932119936342028 T T T
  0.4436570437535031  0.0641853431503316  0.3938721663075276 T T T
  0.7774527228469053  0.0669566889470392  0.3930133965816541 T T T
  0.1124271991179845  0.3985562823909753  0.3936889362809847 T T T
  0.4401160400582141  0.4015472828317203  0.3961935703103445 T T T
  0.7774708888485894  0.3952654023463364  0.3930172674955422 T T T
  0.1090814860090467  0.7313063878546217  0.3932180956784977 T T T
  0.4400986195044456  0.7232822559241329  0.3961917011666198 T T T
  0.7790834679897460  0.7319026798769734  0.3941779378486107 T T T
  0.3303193206287752  0.1737104351518906  0.4554993420171907 T T T
  0.6652167379913964  0.1749706513387135  0.4557454108113748 T T T
  0.9987214638873736  0.1740593857161687  0.4553852080838165 T T T
  0.6710651948929227  0.5062827355624355  0.4544095803241373 T T T
  0.9986896579788408  0.5093308730837656  0.4553901061052186 T T T
  0.3302997254086961  0.8413081573404044  0.4554997860169678 T T T
  0.0007531536645364  0.8427411093643958  0.4560783611403189 T T T
  0.3076126374267741  0.4962184943995947  0.4658385688720109 T T T
  0.6710692345124293  0.8495095366791833  0.4543872741752107 T T T
  0.2208649998828211  0.2861741415521991  0.0564889525234378 F F F
  0.5541981040496966  0.2861741415521991  0.0564889525234378 F F F
  0.8875318957162381  0.2861741415521991  0.0564889525234378 F F F
  0.2208649998828067  0.6195079332187635  0.0564889525234378 F F F
  0.5541981040496965  0.6195079332187635  0.0564889525234378 F F F
  0.8875318957162577  0.6195079332187635  0.0564889525234378 F F F
  0.2208649998828322  0.9528410373856668  0.0564889525234378 F F F
  0.5541981040497127  0.9528410373856668  0.0564889525234378 F F F
  0.8875318957162661  0.9528410373856668  0.0564889525234378 F F F
  0.3319760346053119  0.1750631068300057  0.1787721183546935 F F F
  0.6653091387718743  0.1750631068300057  0.1787721183546935 F F F
  0.9986429304384415  0.1750631068300057  0.1787721183546935 F F F
  0.3319760346053117  0.5083968984965640  0.1787721183546935 F F F
  0.6653091387718746  0.5083968984965640  0.1787721183546935 F F F
  0.9986429304384428  0.5083968984965640  0.1787721183546935 F F F
  0.3319760346053119  0.8417300026634470  0.1787721183546935 F F F
  0.6653091387718746  0.8417300026634470  0.1787721183546935 F F F
  0.9986429304384430  0.8417300026634470  0.1787721183546935 F F F
  0.1099266695412124  0.0638398827929202  0.3019365716282809 T T T
  0.4424669818964559  0.0636113326500173  0.3027116578951307 T T T
  0.7765900532853764  0.0638907643566617  0.3024395872573283 T T T
  0.1100589675199400  0.3974103531371215  0.3024927608812793 T T T
  0.4433628223133620  0.3982895781435362  0.3031888843348015 T T T
  0.7765956386379234  0.3974832453246159  0.3024399782920278 T T T
  0.1099181663871351  0.7308462437973563  0.3019376523346076 T T T
  0.4433514760675658  0.7298247371455623  0.3031918156734114 T T T
  0.7762511270427719  0.7305171872623815  0.3022677467805856 T T T
  0.2171273600517757  0.2803109223606484  0.4248735949299203 T T T
  0.5546739359243422  0.2864580298831182  0.4251811995663666 T T T
  0.8874004306855469  0.2860606808883030  0.4245238464475748 T T T
  0.2171122910181565  0.6215151536943133  0.4248752763313388 T T T
  0.8885465116466800  0.6196126116872750  0.4248172495378247 T T T
  0.2205306306172728  0.9526190444312156  0.4251677978895886 T T T
  0.5546566498217287  0.9529091415592864  0.4251797490978749 T T T
  0.8885530897522638  0.9536624827331716  0.4248062415745819 T T T
  0.5634045853486360  0.6240608754719925  0.4272880913863769 T T T
