TS_O3_Ov_O2_2_CO                        
   1.00000000000000     
     7.7074600000000002    0.0000000000000000    0.0000000000000000
     0.0000000000000000    7.7074600000000002    0.0000000000000000
     0.0000000000000000    0.0000000000000000   22.8999999999999986
   C    O    Ce
     1    30    14
Selective dynamics
Direct
  0.7972701483581943  0.8998872191429541  0.5097359999655922   T   T   T
  0.0709035600787900  0.3439846289855666  0.3028354472914714   T   T   T
  0.3217619999999997  0.5950789999999984  0.1783780000000021   F   F   F
  0.3306385409192885  0.5958909839219686  0.4202249662821416   T   T   T
  0.0708449999999985  0.3439970000000017  0.1733580000000003   F   F   F
  0.3194469999999967  0.5950789999999984  0.0564880000000016   F   F   F
  0.3212378115121410  0.5951446569032157  0.2979266043132682   T   T   T
  0.5708449999999985  0.3514210000000020  0.0570840000000032   F   F   F
  0.5721960616638739  0.3444070254689606  0.2993723128121317   T   T   T
  0.8199279999999973  0.5950789999999984  0.1783780000000021   F   F   F
  0.8276642349485286  0.5884053021238600  0.4141371708007995   T   T   T
  0.5708449999999985  0.3430510000000027  0.1763449999999978   F   F   F
  0.5799096580671019  0.3523127067749527  0.4185637808286700   T   T   T
  0.8222430000000003  0.5950789999999984  0.0564880000000016   F   F   F
  0.8214252871594354  0.5935051407170562  0.2966950931344954   T   T   T
  0.0705774073562111  0.8461028223316234  0.3019291717430974   T   T   T
  0.3232539999999986  0.0950800000000029  0.1815670000000011   F   F   F
  0.2891967199660073  0.0956563281846883  0.4059047669673959   T   T   T
  0.0708449999999985  0.8461619999999996  0.1733580000000003   F   F   F
  0.2763860000000022  0.0950800000000029  0.0702870000000004   F   F   F
  0.3237634622501417  0.0951942340318794  0.2943806712972830   T   T   T
  0.5708449999999985  0.8387379999999993  0.0570840000000032   F   F   F
  0.5723012397852756  0.8455698480941862  0.2979008576002471   T   T   T
  0.8184359999999984  0.0950800000000029  0.1815670000000011   F   F   F
  0.5708449999999985  0.8471079999999986  0.1763449999999978   F   F   F
  0.5768823172975459  0.8375242030898775  0.4146605641982646   T   T   T
  0.8653040000000018  0.0950800000000029  0.0702870000000004   F   F   F
  0.8181337037651630  0.0955986136232809  0.2977391651641810   T   T   T
  0.9066630308360430  0.9429891742319469  0.4514525398815863   T   T   T
  0.8967198415831774  0.1051604121095480  0.4126789193327340   T   T   T
  0.7540349091429732  0.0159725706436973  0.5403562937639492   T   T   T
  0.0708449999999985  0.5950789999999984  0.2379910000000010   F   F   F
  0.3265359999999973  0.3336579999999998  0.1174389999999974   F   F   F
  0.3303211437631717  0.3352720932317368  0.3602938371058073   T   T   T
  0.5708449999999985  0.5950789999999984  0.0156810000000007   F   F   F
  0.5708449999999985  0.5950789999999984  0.2379910000000010   F   F   F
  0.5847743574475217  0.6000698314976844  0.4616123559219076   T   T   T
  0.8151530000000022  0.3336579999999998  0.1174389999999974   F   F   F
  0.8152004330077247  0.3411613064734738  0.3573881549519982   T   T   T
  0.0708449999999985  0.0950800000000029  0.2379910000000010   F   F   F
  0.3265359999999973  0.8565010000000015  0.1174389999999974   F   F   F
  0.3292014894889661  0.8548423314457949  0.3591993696205265   T   T   T
  0.5708449999999985  0.0950800000000029  0.2379910000000010   F   F   F
  0.8151530000000022  0.8565010000000015  0.1174389999999974   F   F   F
  0.8186710183054871  0.8475168952592540  0.3568436147753786   T   T   T
 
  0.00000000E+00  0.00000000E+00  0.00000000E+00
  0.00000000E+00  0.00000000E+00  0.00000000E+00
  0.00000000E+00  0.00000000E+00  0.00000000E+00
  0.00000000E+00  0.00000000E+00  0.00000000E+00
  0.00000000E+00  0.00000000E+00  0.00000000E+00
  0.00000000E+00  0.00000000E+00  0.00000000E+00
  0.00000000E+00  0.00000000E+00  0.00000000E+00
  0.00000000E+00  0.00000000E+00  0.00000000E+00
  0.00000000E+00  0.00000000E+00  0.00000000E+00
  0.00000000E+00  0.00000000E+00  0.00000000E+00
  0.00000000E+00  0.00000000E+00  0.00000000E+00
  0.00000000E+00  0.00000000E+00  0.00000000E+00
  0.00000000E+00  0.00000000E+00  0.00000000E+00
  0.00000000E+00  0.00000000E+00  0.00000000E+00
  0.00000000E+00  0.00000000E+00  0.00000000E+00
  0.00000000E+00  0.00000000E+00  0.00000000E+00
  0.00000000E+00  0.00000000E+00  0.00000000E+00
  0.00000000E+00  0.00000000E+00  0.00000000E+00
  0.00000000E+00  0.00000000E+00  0.00000000E+00
  0.00000000E+00  0.00000000E+00  0.00000000E+00
  0.00000000E+00  0.00000000E+00  0.00000000E+00
  0.00000000E+00  0.00000000E+00  0.00000000E+00
  0.00000000E+00  0.00000000E+00  0.00000000E+00
  0.00000000E+00  0.00000000E+00  0.00000000E+00
  0.00000000E+00  0.00000000E+00  0.00000000E+00
  0.00000000E+00  0.00000000E+00  0.00000000E+00
  0.00000000E+00  0.00000000E+00  0.00000000E+00
  0.00000000E+00  0.00000000E+00  0.00000000E+00
  0.00000000E+00  0.00000000E+00  0.00000000E+00
  0.00000000E+00  0.00000000E+00  0.00000000E+00
  0.00000000E+00  0.00000000E+00  0.00000000E+00
  0.00000000E+00  0.00000000E+00  0.00000000E+00
  0.00000000E+00  0.00000000E+00  0.00000000E+00
  0.00000000E+00  0.00000000E+00  0.00000000E+00
  0.00000000E+00  0.00000000E+00  0.00000000E+00
  0.00000000E+00  0.00000000E+00  0.00000000E+00
  0.00000000E+00  0.00000000E+00  0.00000000E+00
  0.00000000E+00  0.00000000E+00  0.00000000E+00
  0.00000000E+00  0.00000000E+00  0.00000000E+00
  0.00000000E+00  0.00000000E+00  0.00000000E+00
  0.00000000E+00  0.00000000E+00  0.00000000E+00
  0.00000000E+00  0.00000000E+00  0.00000000E+00
  0.00000000E+00  0.00000000E+00  0.00000000E+00
  0.00000000E+00  0.00000000E+00  0.00000000E+00
  0.00000000E+00  0.00000000E+00  0.00000000E+00
