AutoGenerated
1.0
 7.707464  0.000000  0.000000
-3.853732  6.674860  0.000000
 0.000000  0.000000 28.319031
C Ce O
1 12 25
Selective Dynamics
Direct
 0.000000000000  0.000000000000  0.711356140176	T   T   T
 0.166688114781  0.333375229562  0.385878939440	T   T   T
 0.166688114781  0.833311885219  0.385878939440	T   T   T
 0.666624770438  0.833311885219  0.385878939440	T   T   T
 0.666667000000  0.333333000000  0.385930475700	T   T   T
 0.333333000000  0.666667000000  0.498207498325	T   T   T
 0.333039591678  0.166520295839  0.498358437220	T   T   T
 0.833479704161  0.166520295839  0.498358437220	T   T   T
 0.833479704161  0.666960408322  0.498358437220	T   T   T
 0.000459181821  0.500229590910  0.610617870748	T   T   T
 0.499770409090  0.999540818179  0.610617870748	T   T   T
 0.499770409090  0.500229590910  0.610617870748	T   T   T
 0.000000000000  0.000000000000  0.611535931867	T   T   T
 0.999569647322  0.499784823661  0.357601981325	T   T   T
 0.500215176339  0.000430352678  0.357601981325	T   T   T
 0.500215176339  0.499784823661  0.357601981325	T   T   T
 0.000000000000  0.000000000000  0.357687187556	T   T   T
 0.333333000000  0.666667000000  0.414210843033	T   T   T
 0.332885477120  0.166443238560  0.414643135565	T   T   T
 0.833556761440  0.166443238560  0.414643135565	T   T   T
 0.833556761440  0.667114522880  0.414643135565	T   T   T
 0.666667000000  0.333333000000  0.469274572320	T   T   T
 0.167399263081  0.334797526162  0.469431680452	T   T   T
 0.167399263081  0.832600736919  0.469431680452	T   T   T
 0.665202473838  0.832600736919  0.469431680452	T   T   T
 0.000000000000  0.000000000000  0.526532111318	T   T   T
 0.998451611898  0.499225805949  0.527343488158	T   T   T
 0.500774194051  0.001548388102  0.527343488158	T   T   T
 0.500774194051  0.499225805949  0.527343488158	T   T   T
 0.333333000000  0.666667000000  0.581408519008	T   T   T
 0.330883257662  0.165442128831  0.582470057348	T   T   T
 0.834557871169  0.165442128831  0.582470057348	T   T   T
 0.834557871169  0.669116742338  0.582470057348	T   T   T
 0.666667000000  0.333333000000  0.638845492751	T   T   T
 0.169070690210  0.338140380421  0.639355203969	T   T   T
 0.169070690210  0.830929309790  0.639355203969	T   T   T
 0.661859619579  0.830929309790  0.639355203969	T   T   T
 0.000000000000  0.000000000000  0.751704845280	T   T   T
