AutoCreatByScript: N O Na Ti            
   1.00000000000000     
    10.2892150000000004    0.0000000000000000    0.0000000000000000
     0.0000000000000000    7.7573400000000001    0.0000000000000000
     0.0000000000000000    0.0000000000000000   28.7445599999999999
   N    O    Na   Ti
     1    63     1    32
Selective dynamics
Direct
  0.4869677797669993  0.2270883347489985  0.4245777806250004   T   T   T
  0.2696939537409975  0.2272785677510001  0.0839302974230023   T   T   T
  0.7697115491910012  0.4772821009970016  0.0841904551960013   T   T   T
  0.7696917296579997  0.9772342923419970  0.0841800412599980   T   T   T
  0.2697039040459970  0.7272569822440005  0.0842167522730008   T   T   T
  0.0585933777379992  0.4773488902919993  0.1074462709109980   T   T   T
  0.0585863469299994  0.9771412307079999  0.1074377806810034   T   T   T
  0.5588532001509989  0.2272754393319971  0.1075278452039967   T   T   T
  0.5587993470980024  0.7272640872869971  0.1075931626600024   T   T   T
  0.9187476387630014  0.2272260767400027  0.1364914901280017   T   T   T
  0.4186078141090022  0.4773547617829976  0.1364096934839978   T   T   T
  0.4185993376390016  0.9771998124830006  0.1364042663009997   T   T   T
  0.9187873885460007  0.7272408954310023  0.1366505174709971   T   T   T
  0.2000646296880007  0.2272687254540031  0.1687612121399980   T   T   T
  0.7000921017490001  0.4775923819080035  0.1690973684080035   T   T   T
  0.7000794402419999  0.9769097396410018  0.1690857178169978   T   T   T
  0.2004165450429980  0.7272414213329981  0.1691357065909997   T   T   T
  0.4205894702770010  0.2272706885449978  0.2092070111789965   T   T   T
  0.9199052384349997  0.4769117170310011  0.2096390515240003   T   T   T
  0.9198876616580023  0.9775847550450010  0.2096426158219984   T   T   T
  0.4202732636389968  0.7272808673150024  0.2097702772249974   T   T   T
  0.7074479602639983  0.2272621632509981  0.2412440773990028   T   T   T
  0.2074433071789983  0.4773987466429972  0.2412617669420030   T   T   T
  0.2074347557160010  0.9771063188229974  0.2412562037049995   T   T   T
  0.7076309079220025  0.7272674038609992  0.2415584464229994   T   T   T
  0.0617087837160000  0.7272558781000029  0.2632459232199977   T   T   T
  0.0622118090450030  0.2272512082739979  0.2636922584390007   T   T   T
  0.5618785350590016  0.4772749459350010  0.2637116238620010   T   T   T
  0.5618605213029966  0.9772715816479973  0.2637120325940003   T   T   T
  0.3477663223349978  0.2272774356469967  0.2944098587310009   T   T   T
  0.8478115475369989  0.4767206909180004  0.2954094758350010   T   T   T
  0.8478117579170004  0.9777423367389986  0.2954081427980029   T   T   T
  0.3481246902080031  0.7272125907160003  0.2957096165309991   T   T   T
  0.0657711667249998  0.4800909257309982  0.3363469106569994   T   T   T
  0.0657939965560033  0.9744395086740028  0.3363643199540007   T   T   T
  0.5661546706139973  0.2272978389899976  0.3365050502290003   T   T   T
  0.5668178992049988  0.7272642696660014  0.3365650035900032   T   T   T
  0.8544562180370008  0.2271851787890000  0.3681182820260034   T   T   T
  0.8525498534390010  0.7271992735520030  0.3684070465399998   T   T   T
  0.3548089135380010  0.4767761153529975  0.3693845922890020   T   T   T
  0.3547806687509976  0.9776759489949995  0.3693802140919971   T   T   T
  0.2024761209720012  0.2272033625419994  0.3882067733850008   T   T   T
  0.2069603227499996  0.7271959166040034  0.3898437628159996   T   T   T
  0.7059654633870025  0.4767535475220015  0.3906917923480009   T   T   T
  0.7059519606910030  0.9776202877470013  0.3906884872600003   T   T   T
  0.9948871630950009  0.4761341381219992  0.4223949451370004   T   T   T
  0.4954059252720029  0.7271583227010012  0.4224752986039988   T   T   T
  0.9948548030589990  0.9781569997759973  0.4224144892699968   T   T   T
  0.2164973836869990  0.4755351349090020  0.4621817172490026   T   T   T
  0.2165240733639990  0.9784813268409991  0.4621840796660024   T   T   T
  0.7172519235129968  0.7269697638120007  0.4624959046130002   T   T   T
  0.7176669494510008  0.2270200629000030  0.4633132430819984   T   T   T
  0.5000397233590022  0.4765922642380005  0.4949284893350026   T   T   T
  0.5000148053510003  0.9775569047849970  0.4949493792530006   T   T   T
  0.0005682232759980  0.7270656106139981  0.4954457228259983   T   T   T
  0.0004311603619982  0.2270662140180022  0.4961814217660034   T   T   T
  0.3582136762329995  0.7271008649779986  0.5231003267119974   T   T   T
  0.8597714401510004  0.4777317914539978  0.5242596586559998   T   T   T
  0.8597223089640025  0.9763015088050011  0.5242517958670021   T   T   T
  0.3591690087679993  0.2270999772810001  0.5257182127170026   T   T   T
  0.6479045185240011  0.7269085925889982  0.5473492708210017   T   T   T
  0.1491705121719988  0.4726785020439976  0.5475563453889976   T   T   T
  0.1491256272409984  0.9813341227829966  0.5475414597240018   T   T   T
  0.6520224145239979  0.2268665295029990  0.5497140413360029   T   T   T
  0.1340087441010027  0.2280345653280023  0.6058327231090033   T   T   T
  0.1054941881720026  0.2272533252729971  0.1125658125610016   T   T   T
  0.6054863630290015  0.9771824389249986  0.1128984777519975   T   T   T
  0.6055076731139977  0.4773356959359987  0.1129122643800002   T   T   T
  0.1055726771120007  0.7272505977780028  0.1129869075929975   T   T   T
  0.3805693888039983  0.2272828472599997  0.1383285612609981   T   T   T
  0.8805351753710013  0.4771691774610005  0.1384911247929992   T   T   T
  0.8805237448059984  0.9772771735099965  0.1384806849380027   T   T   T
  0.3804785483590010  0.7272786734090033  0.1385267698160035   T   T   T
  0.2445535223519997  0.2272594925400000  0.2374715210760030   T   T   T
  0.7443751359339998  0.4771844913479981  0.2379913027720022   T   T   T
  0.7443698231530007  0.9773324381700021  0.2379762890709998   T   T   T
  0.2446585411760012  0.7272628339660017  0.2380877261579997   T   T   T
  0.5258214245859989  0.2272757720350000  0.2670603196029973   T   T   T
  0.0257492982159988  0.4772081625320013  0.2670205726159978   T   T   T
  0.0257414916040020  0.9772816990159967  0.2670301995930018   T   T   T
  0.5259455841029990  0.7272801681089973  0.2672902679220002   T   T   T
  0.3865376590890008  0.2272385418569982  0.3634584248300001   T   T   T
  0.8882379460239989  0.4766535373929983  0.3641990938119974   T   T   T
  0.8882665009420023  0.9777320377219993  0.3641981967120032   T   T   T
  0.3892987964419987  0.7272410601200008  0.3645898116250024   T   T   T
  0.1692399736970032  0.4768732121450014  0.3933094927119996   T   T   T
  0.1692580063619999  0.9775133298940020  0.3933440484950026   T   T   T
  0.6704697366740007  0.7272005289369972  0.3935435047780018   T   T   T
  0.6698816585349974  0.2271831381469980  0.3937520304380016   T   T   T
  0.0364442453370017  0.4767303802410012  0.4927414376809978   T   T   T
  0.5375068529239968  0.7271011742770028  0.4927412326379965   T   T   T
  0.0363955605149968  0.9774124361180014  0.4927357338630003   T   T   T
  0.5383618938319970  0.2270647647659985  0.4948993949100000   T   T   T
  0.3121675906149974  0.4766623019320022  0.5178810926230000   T   T   T
  0.3121355923640010  0.9775116779440012  0.5178993907019986   T   T   T
  0.8121009899699985  0.7269795866539965  0.5186213820360024   T   T   T
  0.8120718123740005  0.2270084443780007  0.5192772132679977   T   T   T
 
  0.00000000E+00  0.00000000E+00  0.00000000E+00
  0.00000000E+00  0.00000000E+00  0.00000000E+00
  0.00000000E+00  0.00000000E+00  0.00000000E+00
  0.00000000E+00  0.00000000E+00  0.00000000E+00
  0.00000000E+00  0.00000000E+00  0.00000000E+00
  0.00000000E+00  0.00000000E+00  0.00000000E+00
  0.00000000E+00  0.00000000E+00  0.00000000E+00
  0.00000000E+00  0.00000000E+00  0.00000000E+00
  0.00000000E+00  0.00000000E+00  0.00000000E+00
  0.00000000E+00  0.00000000E+00  0.00000000E+00
  0.00000000E+00  0.00000000E+00  0.00000000E+00
  0.00000000E+00  0.00000000E+00  0.00000000E+00
  0.00000000E+00  0.00000000E+00  0.00000000E+00
  0.00000000E+00  0.00000000E+00  0.00000000E+00
  0.00000000E+00  0.00000000E+00  0.00000000E+00
  0.00000000E+00  0.00000000E+00  0.00000000E+00
  0.00000000E+00  0.00000000E+00  0.00000000E+00
  0.00000000E+00  0.00000000E+00  0.00000000E+00
  0.00000000E+00  0.00000000E+00  0.00000000E+00
  0.00000000E+00  0.00000000E+00  0.00000000E+00
  0.00000000E+00  0.00000000E+00  0.00000000E+00
  0.00000000E+00  0.00000000E+00  0.00000000E+00
  0.00000000E+00  0.00000000E+00  0.00000000E+00
  0.00000000E+00  0.00000000E+00  0.00000000E+00
  0.00000000E+00  0.00000000E+00  0.00000000E+00
  0.00000000E+00  0.00000000E+00  0.00000000E+00
  0.00000000E+00  0.00000000E+00  0.00000000E+00
  0.00000000E+00  0.00000000E+00  0.00000000E+00
  0.00000000E+00  0.00000000E+00  0.00000000E+00
  0.00000000E+00  0.00000000E+00  0.00000000E+00
  0.00000000E+00  0.00000000E+00  0.00000000E+00
  0.00000000E+00  0.00000000E+00  0.00000000E+00
  0.00000000E+00  0.00000000E+00  0.00000000E+00
  0.00000000E+00  0.00000000E+00  0.00000000E+00
  0.00000000E+00  0.00000000E+00  0.00000000E+00
  0.00000000E+00  0.00000000E+00  0.00000000E+00
  0.00000000E+00  0.00000000E+00  0.00000000E+00
  0.00000000E+00  0.00000000E+00  0.00000000E+00
  0.00000000E+00  0.00000000E+00  0.00000000E+00
  0.00000000E+00  0.00000000E+00  0.00000000E+00
  0.00000000E+00  0.00000000E+00  0.00000000E+00
  0.00000000E+00  0.00000000E+00  0.00000000E+00
  0.00000000E+00  0.00000000E+00  0.00000000E+00
  0.00000000E+00  0.00000000E+00  0.00000000E+00
  0.00000000E+00  0.00000000E+00  0.00000000E+00
  0.00000000E+00  0.00000000E+00  0.00000000E+00
  0.00000000E+00  0.00000000E+00  0.00000000E+00
  0.00000000E+00  0.00000000E+00  0.00000000E+00
  0.00000000E+00  0.00000000E+00  0.00000000E+00
  0.00000000E+00  0.00000000E+00  0.00000000E+00
  0.00000000E+00  0.00000000E+00  0.00000000E+00
  0.00000000E+00  0.00000000E+00  0.00000000E+00
  0.00000000E+00  0.00000000E+00  0.00000000E+00
  0.00000000E+00  0.00000000E+00  0.00000000E+00
  0.00000000E+00  0.00000000E+00  0.00000000E+00
  0.00000000E+00  0.00000000E+00  0.00000000E+00
  0.00000000E+00  0.00000000E+00  0.00000000E+00
  0.00000000E+00  0.00000000E+00  0.00000000E+00
  0.00000000E+00  0.00000000E+00  0.00000000E+00
  0.00000000E+00  0.00000000E+00  0.00000000E+00
  0.00000000E+00  0.00000000E+00  0.00000000E+00
  0.00000000E+00  0.00000000E+00  0.00000000E+00
  0.00000000E+00  0.00000000E+00  0.00000000E+00
  0.00000000E+00  0.00000000E+00  0.00000000E+00
  0.00000000E+00  0.00000000E+00  0.00000000E+00
  0.00000000E+00  0.00000000E+00  0.00000000E+00
  0.00000000E+00  0.00000000E+00  0.00000000E+00
  0.00000000E+00  0.00000000E+00  0.00000000E+00
  0.00000000E+00  0.00000000E+00  0.00000000E+00
  0.00000000E+00  0.00000000E+00  0.00000000E+00
  0.00000000E+00  0.00000000E+00  0.00000000E+00
  0.00000000E+00  0.00000000E+00  0.00000000E+00
  0.00000000E+00  0.00000000E+00  0.00000000E+00
  0.00000000E+00  0.00000000E+00  0.00000000E+00
  0.00000000E+00  0.00000000E+00  0.00000000E+00
  0.00000000E+00  0.00000000E+00  0.00000000E+00
  0.00000000E+00  0.00000000E+00  0.00000000E+00
  0.00000000E+00  0.00000000E+00  0.00000000E+00
  0.00000000E+00  0.00000000E+00  0.00000000E+00
  0.00000000E+00  0.00000000E+00  0.00000000E+00
  0.00000000E+00  0.00000000E+00  0.00000000E+00
  0.00000000E+00  0.00000000E+00  0.00000000E+00
  0.00000000E+00  0.00000000E+00  0.00000000E+00
  0.00000000E+00  0.00000000E+00  0.00000000E+00
  0.00000000E+00  0.00000000E+00  0.00000000E+00
  0.00000000E+00  0.00000000E+00  0.00000000E+00
  0.00000000E+00  0.00000000E+00  0.00000000E+00
  0.00000000E+00  0.00000000E+00  0.00000000E+00
  0.00000000E+00  0.00000000E+00  0.00000000E+00
  0.00000000E+00  0.00000000E+00  0.00000000E+00
  0.00000000E+00  0.00000000E+00  0.00000000E+00
  0.00000000E+00  0.00000000E+00  0.00000000E+00
  0.00000000E+00  0.00000000E+00  0.00000000E+00
  0.00000000E+00  0.00000000E+00  0.00000000E+00
  0.00000000E+00  0.00000000E+00  0.00000000E+00
  0.00000000E+00  0.00000000E+00  0.00000000E+00
  0.00000000E+00  0.00000000E+00  0.00000000E+00
