Ce16 H2 O34
1.0
7.707460 0.000000 0.000000
0.000000 7.707460 0.000000
0.000000 0.000000 22.900000
H O Ce
2 34 16
Selective dynamics
direct
0.494718 0.149352 0.518063 T T T H
0.849152 0.635824 0.480465 T T T H
0.058069 0.127830 0.009540 F F F O
0.558059 0.127833 0.009507 F F F O
0.058045 0.627833 0.009523 F F F O
0.558046 0.627836 0.009496 F F F O
0.808249 0.377827 0.107959 F F F O
0.308077 0.377839 0.107950 F F F O
0.808253 0.877852 0.107984 F F F O
0.308088 0.877849 0.107975 F F F O
0.558117 0.127825 0.123863 F F F O
0.058166 0.127809 0.123972 F F F O
0.058129 0.627865 0.123941 F F F O
0.558111 0.627851 0.123851 F F F O
0.558474 0.127785 0.237706 F F F O
0.058667 0.127721 0.238013 F F F O
0.808447 0.377676 0.237797 F F F O
0.308216 0.377764 0.237805 F F F O
0.058445 0.627894 0.237871 F F F O
0.558372 0.627843 0.237688 F F F O
0.308217 0.877834 0.237876 F F F O
0.808478 0.877877 0.237848 F F F O
0.556108 0.632556 0.352637 T T T O
0.061232 0.125632 0.356492 T T T O
0.310724 0.375647 0.355660 T T T O
0.558234 0.125272 0.354329 T T T O
0.065167 0.629448 0.356149 T T T O
0.812387 0.877860 0.362997 T T T O
0.810370 0.382095 0.364632 T T T O
0.308144 0.877390 0.367397 T T T O
0.164146 0.088886 0.481354 T T T O
0.621225 0.653426 0.466083 T T T O
0.306942 0.418758 0.467697 T T T O
0.615931 0.130747 0.465004 T T T O
0.973294 0.115428 0.477600 T T T O
0.976239 0.632787 0.471437 T T T O
0.308039 0.127820 0.055789 F F F Ce
0.808117 0.127816 0.055794 F F F Ce
0.308028 0.627866 0.055777 F F F Ce
0.808094 0.627866 0.055783 F F F Ce
0.558233 0.377826 0.177404 F F F Ce
0.058301 0.377758 0.177510 F F F Ce
0.058343 0.877886 0.177531 F F F Ce
0.558240 0.877842 0.177431 F F F Ce
0.309496 0.128364 0.297877 T T T Ce
0.309344 0.627027 0.297054 T T T Ce
0.809259 0.625831 0.298588 T T T Ce
0.808900 0.131251 0.299008 T T T Ce
0.057834 0.877598 0.417082 T T T Ce
0.564300 0.878807 0.417119 T T T Ce
0.547434 0.396085 0.420015 T T T Ce
0.075874 0.377091 0.419926 T T T Ce
