Ca1 Ce21 H4 C1 O43
1.0
7.707464 0.000000 0.000000
0.000000 7.707464 0.000000
0.000000 0.000000 28.350000
H C O Ca Ce
4 1 43 1 21
Selective dynamics
direct
0.060935 0.872262 0.545155 T T T H
0.643956 0.731393 0.594513 T T T H
0.546861 0.956746 0.585819 T T T H
0.856105 0.810971 0.606919 T T T H
0.741411 0.829826 0.583993 T T T C
0.470894 0.127203 0.043812 F F F O
0.470897 0.617973 0.043811 F F F O
0.220239 0.372634 0.044251 F F F O
0.721521 0.372631 0.044244 F F F O
0.176889 0.872647 0.055480 F F F O
0.764902 0.872647 0.055476 F F F O
0.970925 0.122632 0.135488 F F F O
0.970926 0.622908 0.135485 F F F O
0.470948 0.118921 0.141030 F F F O
0.470947 0.626637 0.141030 F F F O
0.718504 0.372721 0.142816 F F F O
0.223419 0.372721 0.142819 F F F O
0.224117 0.872735 0.147301 F F F O
0.717806 0.872735 0.147302 F F F O
0.970973 0.123710 0.237277 F F F O
0.970977 0.622098 0.237259 F F F O
0.219517 0.372959 0.239400 F F F O
0.722475 0.372948 0.239427 F F F O
0.471046 0.124594 0.239681 F F F O
0.471059 0.621238 0.239662 F F F O
0.219136 0.872992 0.241208 F F F O
0.722848 0.872984 0.241240 F F F O
0.220693 0.873849 0.336034 T T T O
0.723219 0.874465 0.337460 T T T O
0.221218 0.374593 0.335205 T T T O
0.471037 0.125250 0.337241 T T T O
0.971915 0.624324 0.337867 T T T O
0.471674 0.624352 0.337910 T T T O
0.722669 0.373891 0.336185 T T T O
0.972240 0.124964 0.338237 T T T O
0.225631 0.883683 0.430479 T T T O
0.722110 0.874936 0.434993 T T T O
0.223184 0.374113 0.429746 T T T O
0.723939 0.378695 0.432672 T T T O
0.967945 0.626659 0.437541 T T T O
0.475368 0.128280 0.435375 T T T O
0.477339 0.627324 0.438560 T T T O
0.972602 0.127727 0.439777 T T T O
0.778282 0.845946 0.536773 T T T O
0.176063 0.877036 0.530285 T T T O
0.465727 0.111180 0.537270 T T T O
0.229806 0.393429 0.531379 T T T O
0.679423 0.413592 0.532992 T T T O
0.218809 0.629085 0.477686 T T T Ca
0.470869 0.372572 0.010720 F F F Ce
0.228120 0.111015 0.093218 F F F Ce
0.713730 0.111019 0.093212 F F F Ce
0.228135 0.634332 0.093221 F F F Ce
0.713716 0.634327 0.093215 F F F Ce
0.970950 0.372830 0.188154 F F F Ce
0.471001 0.372832 0.190420 F F F Ce
0.970948 0.872868 0.190639 F F F Ce
0.470999 0.872871 0.193342 F F F Ce
0.219596 0.124775 0.288206 F F F Ce
0.722435 0.124730 0.288238 F F F Ce
0.219590 0.621231 0.288185 F F F Ce
0.722497 0.621248 0.288217 F F F Ce
0.470942 0.875843 0.385428 T T T Ce
0.974509 0.876979 0.386792 T T T Ce
0.470106 0.376198 0.385248 T T T Ce
0.974899 0.374691 0.386192 T T T Ce
0.723941 0.623479 0.476961 T T T Ce
0.715161 0.126772 0.484680 T T T Ce
0.228286 0.130660 0.479882 T T T Ce
0.446541 0.355138 0.576043 T T T Ce
