Ce16 H2 O34
1.0
7.707460 0.000000 0.000000
0.000000 7.707460 0.000000
0.000000 0.000000 22.900000
H O Ce
2 34 16
Selective dynamics
direct
0.323664 0.172305 0.501634 T T T H
0.851061 0.633996 0.481637 T T T H
0.057870 0.127850 0.009580 F F F O
0.557897 0.127849 0.009570 F F F O
0.057867 0.627863 0.009563 F F F O
0.557901 0.627876 0.009556 F F F O
0.807910 0.377869 0.108028 F F F O
0.307898 0.377883 0.108002 F F F O
0.807917 0.877932 0.108056 F F F O
0.307887 0.877918 0.108038 F F F O
0.557908 0.127917 0.123970 F F F O
0.057897 0.127909 0.123994 F F F O
0.057874 0.627937 0.123960 F F F O
0.557924 0.627961 0.123944 F F F O
0.558124 0.128004 0.237947 F F F O
0.058007 0.128013 0.237998 F F F O
0.807862 0.377877 0.237950 F F F O
0.308028 0.377954 0.237798 F F F O
0.057786 0.627996 0.237810 F F F O
0.558108 0.628088 0.237797 F F F O
0.307976 0.878228 0.237879 F F F O
0.807906 0.878366 0.237993 F F F O
0.558039 0.631395 0.352666 T T T O
0.061508 0.126248 0.357579 T T T O
0.308751 0.380304 0.356047 T T T O
0.556183 0.128255 0.353073 T T T O
0.064197 0.630903 0.356065 T T T O
0.811077 0.879869 0.363672 T T T O
0.812183 0.379236 0.365025 T T T O
0.310104 0.877061 0.367645 T T T O
0.200169 0.031499 0.490556 T T T O
0.614383 0.643806 0.466194 T T T O
0.298603 0.374175 0.468298 T T T O
0.617600 0.127732 0.465720 T T T O
1.035085 0.114588 0.479671 T T T O
0.976361 0.633051 0.470362 T T T O
0.307884 0.127855 0.055841 F F F Ce
0.807886 0.127863 0.055857 F F F Ce
0.307887 0.627917 0.055829 F F F Ce
0.807885 0.627906 0.055845 F F F Ce
0.558004 0.377900 0.177506 F F F Ce
0.057865 0.377858 0.177535 F F F Ce
0.057877 0.878057 0.177566 F F F Ce
0.557984 0.878066 0.177537 F F F Ce
0.310297 0.129559 0.297801 T T T Ce
0.311235 0.628097 0.297245 T T T Ce
0.806951 0.626445 0.298766 T T T Ce
0.806518 0.130990 0.298935 T T T Ce
0.056830 0.877704 0.415447 T T T Ce
0.566454 0.883172 0.419996 T T T Ce
0.549615 0.384360 0.421897 T T T Ce
0.070977 0.379367 0.417510 T T T Ce
