Ca1 Ce21 H4 C1 O43
1.0
7.707464 0.000000 0.000000
0.000000 7.707464 0.000000
0.000000 0.000000 28.350000
H C O Ca Ce
4 1 43 1 21
Selective dynamics
direct
0.133232 0.850043 0.557525 T T T H
0.638977 0.846960 0.601452 T T T H
0.417263 0.963986 0.563855 T T T H
0.849233 0.729004 0.601516 T T T H
0.758028 0.813468 0.582268 T T T C
0.470954 0.127034 0.043811 F F F O
0.470954 0.617813 0.043808 F F F O
0.220286 0.372456 0.044250 F F F O
0.721564 0.372457 0.044244 F F F O
0.176939 0.872471 0.055482 F F F O
0.764951 0.872474 0.055478 F F F O
0.971009 0.122464 0.135490 F F F O
0.971007 0.622724 0.135483 F F F O
0.471039 0.118752 0.141027 F F F O
0.471034 0.626457 0.141029 F F F O
0.718604 0.372549 0.142818 F F F O
0.223525 0.372542 0.142820 F F F O
0.224222 0.872562 0.147300 F F F O
0.717914 0.872564 0.147302 F F F O
0.971187 0.123643 0.237271 F F F O
0.971165 0.621936 0.237242 F F F O
0.219716 0.372857 0.239391 F F F O
0.722607 0.372875 0.239430 F F F O
0.471295 0.124470 0.239670 F F F O
0.471267 0.621097 0.239644 F F F O
0.219314 0.872913 0.241188 F F F O
0.723002 0.872933 0.241233 F F F O
0.220120 0.873245 0.335943 T T T O
0.722048 0.873579 0.337575 T T T O
0.220756 0.373877 0.335051 T T T O
0.470288 0.124420 0.337541 T T T O
0.971495 0.623145 0.337877 T T T O
0.470722 0.623209 0.337874 T T T O
0.721787 0.373131 0.336155 T T T O
0.972012 0.124313 0.338035 T T T O
0.222126 0.879224 0.430448 T T T O
0.718530 0.873081 0.435307 T T T O
0.221168 0.372968 0.429420 T T T O
0.721644 0.377061 0.432881 T T T O
0.965324 0.623393 0.437627 T T T O
0.474150 0.126336 0.436560 T T T O
0.475887 0.624563 0.438032 T T T O
0.967916 0.125780 0.439293 T T T O
0.782889 0.846100 0.537050 T T T O
0.217416 0.857225 0.531995 T T T O
0.480367 0.102415 0.546957 T T T O
0.238313 0.396365 0.533253 T T T O
0.677623 0.408566 0.533173 T T T O
0.219660 0.623046 0.476931 T T T Ca
0.470912 0.372411 0.010724 F F F Ce
0.228191 0.110841 0.093222 F F F Ce
0.713802 0.110851 0.093214 F F F Ce
0.228207 0.634153 0.093225 F F F Ce
0.713783 0.634148 0.093218 F F F Ce
0.971073 0.372670 0.188151 F F F Ce
0.471142 0.372668 0.190416 F F F Ce
0.971072 0.872720 0.190638 F F F Ce
0.471142 0.872719 0.193335 F F F Ce
0.219946 0.124865 0.288184 F F F Ce
0.722711 0.124847 0.288233 F F F Ce
0.219895 0.621153 0.288155 F F F Ce
0.722681 0.621217 0.288202 F F F Ce
0.468541 0.874484 0.385695 T T T Ce
0.973091 0.875608 0.386743 T T T Ce
0.468379 0.374423 0.385279 T T T Ce
0.973784 0.372892 0.385995 T T T Ce
0.721089 0.621285 0.476715 T T T Ce
0.712604 0.127607 0.484321 T T T Ce
0.226111 0.130364 0.480739 T T T Ce
0.452207 0.368697 0.578278 T T T Ce
