H    O    Ce
   1.00000000000000     
  11.5611999999999995   0.0000000000000000   0.0000000000000000
  -5.7805999999999997  10.0122929000000003   0.0000000000000000
   0.0000000000000000   0.0000000000000000  26.0129599999999996
H    O    Ce
2  72  36  
Selective dynamics
Direct
  0.4969307409580070  0.5909968430443800  0.5102783281090810 T T T
  0.3999303454259150  0.5424552371015920  0.4955755063384830 T T T
  0.1097539599347140  0.0639520829239899  0.0259129002299545 F F F
  0.4430870797266170  0.0639520829239899  0.0259129002299545 F F F
  0.7764208401431600  0.0639520829239899  0.0259129002299545 F F F
  0.1097539599347290  0.3972858433405480  0.0259129002299545 F F F
  0.4430870797266170  0.3972858433405480  0.0259129002299545 F F F
  0.7764208401431600  0.3972858433405480  0.0259129002299545 F F F
  0.1097539599347290  0.7306189631324570  0.0259129002299545 F F F
  0.4430870797266310  0.7306189631324570  0.0259129002299545 F F F
  0.7764208401431600  0.7306189631324570  0.0259129002299545 F F F
  0.3319760397961100  0.1750631228545030  0.0877169113335583 F F F
  0.6653091595876570  0.1750631228545030  0.0877169113335583 F F F
  0.9986429200042080  0.1750631228545030  0.0877169113335583 F F F
  0.3319760397961100  0.5083968832710470  0.0877169113335583 F F F
  0.6653091595876570  0.5083968832710470  0.0877169113335583 F F F
  0.9986429200042080  0.5083968832710470  0.0877169113335583 F F F
  0.3319760397961100  0.8417300030629630  0.0877169113335583 F F F
  0.6653091595876570  0.8417300030629630  0.0877169113335583 F F F
  0.9986429200042080  0.8417300030629630  0.0877169113335583 F F F
  0.2208649998652420  0.2861741627850310  0.1472711207050710 F F F
  0.5541981196571510  0.2861741627850310  0.1472711207050710 F F F
  0.8875318800736810  0.2861741627850310  0.1472711207050710 F F F
  0.2208649998652350  0.6195079232015890  0.1472711207050710 F F F
  0.5541981196571510  0.6195079232015890  0.1472711207050710 F F F
  0.8875318800736950  0.6195079232015890  0.1472711207050710 F F F
  0.2208649998652560  0.9528410429935120  0.1472711207050710 F F F
  0.5541981196571650  0.9528410429935120  0.1472711207050710 F F F
  0.8875318800737020  0.9528410429935120  0.1472711207050710 F F F
  0.1097539599347140  0.0639520829239899  0.2096169732635860 F F F
  0.4430870797266170  0.0639520829239899  0.2096169732635860 F F F
  0.7764208401431600  0.0639520829239899  0.2096169732635860 F F F
  0.1097539599347290  0.3972858433405480  0.2096169732635860 F F F
  0.4430870797266170  0.3972858433405480  0.2096169732635860 F F F
  0.7764208401431600  0.3972858433405480  0.2096169732635860 F F F
  0.1097539599347290  0.7306189631324570  0.2096169732635860 F F F
  0.4430870797266310  0.7306189631324570  0.2096169732635860 F F F
  0.7764208401431600  0.7306189631324570  0.2096169732635860 F F F
  0.3325996314453120  0.1753595704085740  0.2715047362715950 T T T
  0.6642264046278830  0.1744967976166550  0.2720777510663550 T T T
  0.9987787816208000  0.1749755214335170  0.2713320622262500 T T T
  0.3322690709199560  0.5085177333965520  0.2719130541502820 T T T
  0.6651211483499040  0.5077799756934600  0.2714097662824530 T T T
  0.9987900036037020  0.5085899842292680  0.2713310895242390 T T T
  0.3325832979014650  0.8420135575856310  0.2715078776613000 T T T
  0.6651302920239460  0.8421389332369600  0.2714085516791660 T T T
  0.9987791974487340  0.8417842519208560  0.2712856014958260 T T T
  0.2209478126007620  0.2851329239019830  0.3339407266010710 T T T
  0.5527213642727770  0.2875649476614870  0.3349285406335060 T T T
  0.8887727899616640  0.2867744111265370  0.3334740116770690 T T T
  0.2209416166100910  0.6205581879829229  0.3339374458425010 T T T
  0.5565998687517890  0.6206859048121200  0.3335822592689790 T T T
  0.8872149804901350  0.6191935155859910  0.3337037116996770 T T T
  0.2213189329412370  0.9530408080236010  0.3337679478443500 T T T
  0.5527047135428940  0.9498947001666020  0.3349303506135540 T T T
  0.8872120562151690  0.9527915647486790  0.3337113161551670 T T T
  0.1091024038425350  0.0626937548812379  0.3932502701432910 T T T
  0.4437138314043950  0.0642220953299883  0.3937599033334960 T T T
  0.7771969293049070  0.0664994205117679  0.3930291197429480 T T T
  0.1108230873683030  0.3977639335135090  0.3932631252273140 T T T
  0.4408447891414160  0.4020141910290530  0.3960453402864490 T T T
  0.7772084639241330  0.3954697317782700  0.3930315459704660 T T T
  0.1090813274645010  0.7311301360945071  0.3932555351193940 T T T
  0.4408303677374190  0.7235572720139840  0.3960431777394010 T T T
  0.7784780648996590  0.7316024039974210  0.3940968984076820 T T T
  0.3308187703543340  0.1739337997430820  0.4554447435821130 T T T
  0.6650210465704089  0.1748761106595820  0.4557253106516940 T T T
  0.9982257389461610  0.1739197844046600  0.4554251384268540 T T T
  0.6703459431707300  0.5069481934186090  0.4545435675311320 T T T
  0.9982008847542690  0.5089875748903760  0.4554305448587360 T T T
  0.3308095148153780  0.8415969730634960  0.4554444862503860 T T T
  0.0004524910269339  0.8425936976337099  0.4559928881243920 T T T
  0.3064147438123900  0.4956011854470790  0.4641354885165970 T T T
  0.6703481169200880  0.8481320682739120  0.4545239245382360 T T T
  0.2208649998652420  0.2861741627850310  0.0564889454019522 F F F
  0.5541981196571510  0.2861741627850310  0.0564889454019522 F F F
  0.8875318800736810  0.2861741627850310  0.0564889454019522 F F F
  0.2208649998652350  0.6195079232015890  0.0564889454019522 F F F
  0.5541981196571510  0.6195079232015890  0.0564889454019522 F F F
  0.8875318800736950  0.6195079232015890  0.0564889454019522 F F F
  0.2208649998652560  0.9528410429935120  0.0564889454019522 F F F
  0.5541981196571650  0.9528410429935120  0.0564889454019522 F F F
  0.8875318800737020  0.9528410429935120  0.0564889454019522 F F F
  0.3319760397961100  0.1750631228545030  0.1787721361078950 F F F
  0.6653091595876570  0.1750631228545030  0.1787721361078950 F F F
  0.9986429200042080  0.1750631228545030  0.1787721361078950 F F F
  0.3319760397961100  0.5083968832710470  0.1787721361078950 F F F
  0.6653091595876570  0.5083968832710470  0.1787721361078950 F F F
  0.9986429200042080  0.5083968832710470  0.1787721361078950 F F F
  0.3319760397961100  0.8417300030629630  0.1787721361078950 F F F
  0.6653091595876570  0.8417300030629630  0.1787721361078950 F F F
  0.9986429200042080  0.8417300030629630  0.1787721361078950 F F F
  0.1099853625979530  0.0639667368866057  0.3020298473288610 T T T
  0.4425001510353330  0.0636331640832282  0.3026437334041890 T T T
  0.7765362272865770  0.0638620175713314  0.3024121765196240 T T T
  0.1099503845490020  0.3973578746107550  0.3024549620733840 T T T
  0.4431925850524580  0.3981027713568390  0.3030832207199620 T T T
  0.7765389015211430  0.3974576080888640  0.3024125819818480 T T T
  0.1099797017846030  0.7307829955836740  0.3020303677876440 T T T
  0.4431868271087180  0.7298496579122830  0.3030848399164580 T T T
  0.7764175781246860  0.7305995217589900  0.3021752940171250 T T T
  0.2173094284798510  0.2819476499590080  0.4250937717811710 T T T
  0.5543608716133190  0.2862400930818150  0.4251169968725890 T T T
  0.8872362947339810  0.2859828749489640  0.4244550945906270 T T T
  0.2172981379549910  0.6200810890271170  0.4250936392027920 T T T
  0.8887051991416400  0.6196233133359430  0.4247564855056680 T T T
  0.2206380536240000  0.9526819171079380  0.4250805497924690 T T T
  0.5543520822506810  0.9528386411404380  0.4251154275780490 T T T
  0.8887129520829830  0.9538165342661959  0.4247488290725770 T T T
  0.5626290978111540  0.6236830039189269  0.4264551902332840 T T T
