Ca1 Ce21 H4 C1 O43
1.0
7.707464 0.000000 0.000000
0.000000 7.707464 0.000000
0.000000 0.000000 28.350000
H C O Ca Ce
4 1 43 1 21
Selective dynamics
direct
0.095598 0.862538 0.550422 T T T H
0.636246 0.750165 0.595692 T T T H
0.482545 0.947574 0.580527 T T T H
0.858606 0.798828 0.605851 T T T H
0.744419 0.834133 0.584073 T T T C
0.470813 0.126868 0.043867 F F F O
0.470814 0.617645 0.043866 F F F O
0.220154 0.372274 0.044306 F F F O
0.721444 0.372273 0.044300 F F F O
0.176801 0.872280 0.055541 F F F O
0.764816 0.872280 0.055536 F F F O
0.970838 0.122199 0.135548 F F F O
0.970840 0.622463 0.135543 F F F O
0.470871 0.118483 0.141083 F F F O
0.470870 0.626183 0.141082 F F F O
0.718433 0.372312 0.142875 F F F O
0.223338 0.372308 0.142877 F F F O
0.224037 0.872318 0.147352 F F F O
0.717739 0.872317 0.147355 F F F O
0.970923 0.123241 0.237333 F F F O
0.970930 0.621586 0.237308 F F F O
0.219470 0.372428 0.239441 F F F O
0.722431 0.372437 0.239486 F F F O
0.471063 0.124087 0.239721 F F F O
0.471073 0.620722 0.239699 F F F O
0.219087 0.872460 0.241235 F F F O
0.722812 0.872460 0.241286 F F F O
0.220532 0.873086 0.335995 T T T O
0.723068 0.873661 0.337537 T T T O
0.221075 0.373873 0.335175 T T T O
0.470874 0.124536 0.337333 T T T O
0.971720 0.623448 0.337936 T T T O
0.471506 0.623465 0.337904 T T T O
0.722559 0.373190 0.336240 T T T O
0.972074 0.124273 0.338253 T T T O
0.224926 0.881700 0.430171 T T T O
0.721517 0.873963 0.435270 T T T O
0.222698 0.373598 0.429449 T T T O
0.723554 0.377936 0.432966 T T T O
0.966822 0.625427 0.437680 T T T O
0.475958 0.127404 0.435602 T T T O
0.477765 0.625871 0.438386 T T T O
0.970766 0.126566 0.439743 T T T O
0.780678 0.847259 0.537317 T T T O
0.194545 0.871405 0.529053 T T T O
0.472588 0.110967 0.539147 T T T O
0.230795 0.393252 0.531903 T T T O
0.678041 0.412703 0.533422 T T T O
0.219176 0.625283 0.477096 T T T Ca
0.470790 0.372251 0.010782 F F F Ce
0.228037 0.110640 0.093277 F F F Ce
0.713646 0.110644 0.093271 F F F Ce
0.228043 0.633940 0.093278 F F F Ce
0.713641 0.633937 0.093272 F F F Ce
0.970865 0.372354 0.188212 F F F Ce
0.470951 0.372351 0.190472 F F F Ce
0.970867 0.872393 0.190693 F F F Ce
0.470952 0.872384 0.193386 F F F Ce
0.219607 0.124289 0.288235 F F F Ce
0.722540 0.124265 0.288286 F F F Ce
0.219612 0.620667 0.288206 F F F Ce
0.722566 0.620725 0.288259 F F F Ce
0.470749 0.874853 0.385471 T T T Ce
0.973925 0.876100 0.386843 T T T Ce
0.470019 0.375279 0.385251 T T T Ce
0.974313 0.373702 0.386213 T T T Ce
0.723880 0.622888 0.477224 T T T Ce
0.715290 0.126439 0.484803 T T T Ce
0.228107 0.131372 0.479652 T T T Ce
0.446862 0.358148 0.576799 T T T Ce
