Ce16 H2 O34
1.0
7.707460 0.000000 0.000000
0.000000 7.707460 0.000000
0.000000 0.000000 22.900000
H O Ce
2 34 16
Selective dynamics
direct
0.433915 0.155120 0.515603 T T T H
0.852384 0.637456 0.480744 T T T H
0.058059 0.127869 0.009521 F F F O
0.558073 0.127872 0.009497 F F F O
0.058038 0.627864 0.009511 F F F O
0.558059 0.627870 0.009488 F F F O
0.808265 0.377911 0.107953 F F F O
0.308144 0.377916 0.107931 F F F O
0.808267 0.877938 0.107972 F F F O
0.308150 0.877933 0.107951 F F F O
0.558174 0.127947 0.123867 F F F O
0.058171 0.127939 0.123944 F F F O
0.058139 0.627972 0.123919 F F F O
0.558164 0.627965 0.123851 F F F O
0.558910 0.128041 0.237771 F F F O
0.058824 0.128025 0.237942 F F F O
0.808555 0.378061 0.237846 F F F O
0.308468 0.378038 0.237722 F F F O
0.058582 0.628084 0.237816 F F F O
0.558747 0.628084 0.237693 F F F O
0.308440 0.878155 0.237785 F F F O
0.808599 0.878288 0.237885 F F F O
0.557536 0.633262 0.352522 T T T O
0.062149 0.127153 0.356579 T T T O
0.311520 0.377383 0.355648 T T T O
0.558906 0.126997 0.354157 T T T O
0.065721 0.630589 0.356108 T T T O
0.813472 0.879234 0.363224 T T T O
0.812606 0.382014 0.364937 T T T O
0.309813 0.877685 0.367146 T T T O
0.185963 0.081617 0.481180 T T T O
0.622026 0.652506 0.466102 T T T O
0.308399 0.415557 0.468269 T T T O
0.618845 0.131870 0.466176 T T T O
1.004560 0.118544 0.478480 T T T O
0.979363 0.635025 0.471521 T T T O
0.308062 0.127891 0.055773 F F F Ce
0.808112 0.127893 0.055785 F F F Ce
0.308047 0.627922 0.055764 F F F Ce
0.808094 0.627923 0.055777 F F F Ce
0.558420 0.377971 0.177407 F F F Ce
0.058329 0.377938 0.177482 F F F Ce
0.058353 0.878054 0.177500 F F F Ce
0.558413 0.878029 0.177430 F F F Ce
0.310572 0.129075 0.297751 T T T Ce
0.310314 0.627505 0.297003 T T T Ce
0.809343 0.626366 0.298651 T T T Ce
0.808787 0.131772 0.299020 T T T Ce
0.059184 0.878678 0.416604 T T T Ce
0.566597 0.881200 0.417782 T T T Ce
0.550425 0.394570 0.420439 T T T Ce
0.077284 0.380438 0.419274 T T T Ce
