H    O    Ce
   1.00000000000000
    11.5611999999999995    0.0000000000000000    0.0000000000000000
    -5.7805999999999997   10.0122929000000003    0.0000000000000000
     0.0000000000000000    0.0000000000000000   26.0129599999999996
   H    O    Ce
     2    72    36
Selective dynamics
Direct
  0.5010476420137546  0.5930546686074654  0.5097117013689463   T   T   T
  0.3916128580373607  0.5382876674210666  0.4939764303640025   T   T   T
  0.1097539634186475  0.0639520757132175  0.0259129089056103   F   F   F
  0.4430870727938654  0.0639520757132175  0.0259129089056103   F   F   F
  0.7764208540437494  0.0639520757132175  0.0259129089056103   F   F   F
  0.1097539634186642  0.3972858569631206  0.0259129089056103   F   F   F
  0.4430870727938654  0.3972858569631206  0.0259129089056103   F   F   F
  0.7764208540437494  0.3972858569631206  0.0259129089056103   F   F   F
  0.1097539634186677  0.7306189663383362  0.0259129089056103   F   F   F
  0.4430870727938838  0.7306189663383362  0.0259129089056103   F   F   F
  0.7764208540437494  0.7306189663383362  0.0259129089056103   F   F   F
  0.3319760363355826  0.1750631121715098  0.0877169190436860   F   F   F
  0.6653091457104736  0.1750631121715098  0.0877169190436860   F   F   F
  0.9986429269603616  0.1750631121715098  0.0877169190436860   F   F   F
  0.3319760363355826  0.5083968934213914  0.0877169190436860   F   F   F
  0.6653091457104736  0.5083968934213914  0.0877169190436860   F   F   F
  0.9986429269603647  0.5083968934213914  0.0877169190436860   F   F   F
  0.3319760363355829  0.8417300027966239  0.0877169190436860   F   F   F
  0.6653091457104737  0.8417300027966239  0.0877169190436860   F   F   F
  0.9986429269603649  0.8417300027966239  0.0877169190436860   F   F   F
  0.2208649998769667  0.2861741486298133  0.1472711102089761   F   F   F
  0.5541981092521765  0.2861741486298133  0.1472711102089761   F   F   F
  0.8875318905020614  0.2861741486298133  0.1472711102089761   F   F   F
  0.2208649998769495  0.6195079298797195  0.1472711102089761   F   F   F
  0.5541981092521772  0.6195079298797195  0.1472711102089761   F   F   F
  0.8875318905020748  0.6195079298797195  0.1472711102089761   F   F   F
  0.2208649998769887  0.9528410392549644  0.1472711102089761   F   F   F
  0.5541981092522056  0.9528410392549644  0.1472711102089761   F   F   F
  0.8875318905020877  0.9528410392549644  0.1472711102089761   F   F   F
  0.1097539634186475  0.0639520757132175  0.2096169755884958   F   F   F
  0.4430870727938654  0.0639520757132175  0.2096169755884958   F   F   F
  0.7764208540437494  0.0639520757132175  0.2096169755884958   F   F   F
  0.1097539634186642  0.3972858569631206  0.2096169755884958   F   F   F
  0.4430870727938654  0.3972858569631206  0.2096169755884958   F   F   F
  0.7764208540437494  0.3972858569631206  0.2096169755884958   F   F   F
  0.1097539634186677  0.7306189663383362  0.2096169755884958   F   F   F
  0.4430870727938838  0.7306189663383362  0.2096169755884958   F   F   F
  0.7764208540437494  0.7306189663383362  0.2096169755884958   F   F   F
  0.3325969242701365  0.1753546809806909  0.2715146727428280   T   T   T
  0.6642774371160197  0.1745226670060468  0.2721070861290897   T   T   T
  0.9988041849829598  0.1750113465463073  0.2713278233795410   T   T   T
  0.3321877289569072  0.5084769896406135  0.2719367444100438   T   T   T
  0.6651352293583181  0.5077359389272241  0.2714121111773807   T   T   T
  0.9988145316268611  0.5085790621630945  0.2713268696036845   T   T   T
  0.3325797382538284  0.8420147348037599  0.2715184362990702   T   T   T
  0.6651435006186489  0.8421950618850444  0.2714110829002190   T   T   T
  0.9987965792661617  0.8417933410195153  0.2712816235462820   T   T   T
  0.2208177390883582  0.2850086522347893  0.3339614163321410   T   T   T
  0.5527532127646593  0.2876127849214060  0.3349541199949062   T   T   T
  0.8891077581021395  0.2869405026884543  0.3335321452428089   T   T   T
  0.2208094678107374  0.6205512382575461  0.3339587842167606   T   T   T
  0.5566281248308182  0.6206995764089194  0.3335184712818405   T   T   T
  0.8872442029387032  0.6191690899216307  0.3336958195957197   T   T   T
  0.2212937594168796  0.9530281524868499  0.3337723910501586   T   T   T
  0.5527370930119168  0.9498799176255631  0.3349550412293921   T   T   T
  0.8872433599466764  0.9528466181409538  0.3337030639323050   T   T   T
  0.1091621926260131  0.0626965986070515  0.3932320085950939   T   T   T
  0.4436774406513996  0.0642032284094738  0.3937935530358909   T   T   T
  0.7773379210226072  0.0667218341585730  0.3929995055855313   T   T   T
  0.1119413263475721  0.3983205643461999  0.3935706451246353   T   T   T
  0.4403310809837257  0.4016952737852106  0.3961384934288045   T   T   T
  0.7773521779557153  0.3953872865922555  0.3930018448260898   T   T   T
  0.1091407551550903  0.7311880456168937  0.3932365942598842   T   T   T
  0.4403160224324483  0.7233629352480008  0.3961361068681176   T   T   T
  0.7788531643382718  0.7317905183584364  0.3941319197191840   T   T   T
  0.3305064626582592  0.1738080069217784  0.4554490932121671   T   T   T
  0.6651527487812008  0.1749420892441717  0.4557141459994309   T   T   T
  0.9985107386142258  0.1740429166651599  0.4553793430402990   T   T   T
  0.6707735645471603  0.5065265621892276  0.4544417400832958   T   T   T
  0.9984900657445321  0.5091530754697886  0.4553834937042037   T   T   T
  0.3304958032275798  0.8414073757928776  0.4554481755230269   T   T   T
  0.0006193930992682  0.8426769703417776  0.4559831337315964   T   T   T
  0.3079508725794660  0.4963725490782058  0.4654723080412500   T   T   T
  0.6707710654876916  0.8489760652747426  0.4544228545893791   T   T   T
  0.2208649998769667  0.2861741486298133  0.0564889501496140   F   F   F
  0.5541981092521765  0.2861741486298133  0.0564889501496140   F   F   F
  0.8875318905020614  0.2861741486298133  0.0564889501496140   F   F   F
  0.2208649998769495  0.6195079298797195  0.0564889501496140   F   F   F
  0.5541981092521772  0.6195079298797195  0.0564889501496140   F   F   F
  0.8875318905020748  0.6195079298797195  0.0564889501496140   F   F   F
  0.2208649998769887  0.9528410392549644  0.0564889501496140   F   F   F
  0.5541981092522056  0.9528410392549644  0.0564889501496140   F   F   F
  0.8875318905020877  0.9528410392549644  0.0564889501496140   F   F   F
  0.3319760363355826  0.1750631121715098  0.1787721242724274   F   F   F
  0.6653091457104736  0.1750631121715098  0.1787721242724274   F   F   F
  0.9986429269603616  0.1750631121715098  0.1787721242724274   F   F   F
  0.3319760363355826  0.5083968934213914  0.1787721242724274   F   F   F
  0.6653091457104736  0.5083968934213914  0.1787721242724274   F   F   F
  0.9986429269603647  0.5083968934213914  0.1787721242724274   F   F   F
  0.3319760363355829  0.8417300027966239  0.1787721242724274   F   F   F
  0.6653091457104737  0.8417300027966239  0.1787721242724274   F   F   F
  0.9986429269603649  0.8417300027966239  0.1787721242724274   F   F   F
  0.1099501109810928  0.0638970447964661  0.3019670250390200   T   T   T
  0.4425037795816369  0.0636341994664425  0.3026620928866916   T   T   T
  0.7765589683824814  0.0638554863369150  0.3024131808613070   T   T   T
  0.1100332040008880  0.3973983805040811  0.3024600768229850   T   T   T
  0.4433104875681638  0.3982470322166706  0.3031413092132207   T   T   T
  0.7765621275784788  0.3974864594511061  0.3024134247629958   T   T   T
  0.1099435077962041  0.7308169277643164  0.3019679829998689   T   T   T
  0.4433030311766663  0.7298209580964562  0.3031426661553581   T   T   T
  0.7762872990239318  0.7305346413638195  0.3022234578486589   T   T   T
  0.2172171167618660  0.2808824532772907  0.4249599897101926   T   T   T
  0.5545678574960604  0.2864187383844944  0.4251396796227149   T   T   T
  0.8873233162686081  0.2860236916692925  0.4244678924285437   T   T   T
  0.2172053462851266  0.6210499037736024  0.4249594475422550   T   T   T
  0.8885484302905357  0.6195963089298772  0.4247640654165102   T   T   T
  0.2205765933351796  0.9526497227221463  0.4250867496620532   T   T   T
  0.5545566384942846  0.9528607176445161  0.4251377003624492   T   T   T
  0.8885561762913237  0.9536845324805732  0.4247564313908978   T   T   T
  0.5631470493115637  0.6239391604093633  0.4270608460730001   T   T   T

             NaN             NaN             NaN
             NaN             NaN             NaN
             NaN             NaN             NaN
             NaN             NaN             NaN
             NaN             NaN             NaN
             NaN             NaN             NaN
             NaN             NaN             NaN
             NaN             NaN             NaN
             NaN             NaN             NaN
             NaN             NaN             NaN
             NaN             NaN             NaN
             NaN             NaN             NaN
             NaN             NaN             NaN
             NaN             NaN             NaN
             NaN             NaN             NaN
             NaN             NaN             NaN
             NaN             NaN             NaN
             NaN             NaN             NaN
             NaN             NaN             NaN
             NaN             NaN             NaN
             NaN             NaN             NaN
             NaN             NaN             NaN
             NaN             NaN             NaN
             NaN             NaN             NaN
             NaN             NaN             NaN
             NaN             NaN             NaN
             NaN             NaN             NaN
             NaN             NaN             NaN
             NaN             NaN             NaN
             NaN             NaN             NaN
             NaN             NaN             NaN
             NaN             NaN             NaN
             NaN             NaN             NaN
             NaN             NaN             NaN
             NaN             NaN             NaN
             NaN             NaN             NaN
             NaN             NaN             NaN
             NaN             NaN             NaN
             NaN             NaN             NaN
             NaN             NaN             NaN
             NaN             NaN             NaN
             NaN             NaN             NaN
             NaN             NaN             NaN
             NaN             NaN             NaN
             NaN             NaN             NaN
             NaN             NaN             NaN
             NaN             NaN             NaN
             NaN             NaN             NaN
             NaN             NaN             NaN
             NaN             NaN             NaN
             NaN             NaN             NaN
             NaN             NaN             NaN
             NaN             NaN             NaN
             NaN             NaN             NaN
             NaN             NaN             NaN
             NaN             NaN             NaN
             NaN             NaN             NaN
             NaN             NaN             NaN
             NaN             NaN             NaN
             NaN             NaN             NaN
             NaN             NaN             NaN
             NaN             NaN             NaN
             NaN             NaN             NaN
             NaN             NaN             NaN
             NaN             NaN             NaN
             NaN             NaN             NaN
             NaN             NaN             NaN
             NaN             NaN             NaN
             NaN             NaN             NaN
             NaN             NaN             NaN
             NaN             NaN             NaN
             NaN             NaN             NaN
             NaN             NaN             NaN
             NaN             NaN             NaN
             NaN             NaN             NaN
             NaN             NaN             NaN
             NaN             NaN             NaN
             NaN             NaN             NaN
             NaN             NaN             NaN
             NaN             NaN             NaN
             NaN             NaN             NaN
             NaN             NaN             NaN
             NaN             NaN             NaN
             NaN             NaN             NaN
             NaN             NaN             NaN
             NaN             NaN             NaN
             NaN             NaN             NaN
             NaN             NaN             NaN
             NaN             NaN             NaN
             NaN             NaN             NaN
             NaN             NaN             NaN
             NaN             NaN             NaN
             NaN             NaN             NaN
             NaN             NaN             NaN
             NaN             NaN             NaN
             NaN             NaN             NaN
             NaN             NaN             NaN
             NaN             NaN             NaN
             NaN             NaN             NaN
             NaN             NaN             NaN
             NaN             NaN             NaN
             NaN             NaN             NaN
             NaN             NaN             NaN
             NaN             NaN             NaN
             NaN             NaN             NaN
             NaN             NaN             NaN
             NaN             NaN             NaN
             NaN             NaN             NaN
             NaN             NaN             NaN
             NaN             NaN             NaN
