H    O    Ce
   1.00000000000000     
  11.5611999999999995   0.0000000000000000   0.0000000000000000
  -5.7805999999999997  10.0122929000000003   0.0000000000000000
   0.0000000000000000   0.0000000000000000  26.0129599999999996
H    O    Ce
2  72  36  
Selective dynamics
Direct
  0.5018908247143660  0.5934785820838751  0.5097825371125420 T T T
  0.3917096929356920  0.5383521064654100  0.4944477099639220 T T T
  0.1097539634186480  0.0639520757132175  0.0259129089056103 F F F
  0.4430870727938650  0.0639520757132175  0.0259129089056103 F F F
  0.7764208540437491  0.0639520757132175  0.0259129089056103 F F F
  0.1097539634186620  0.3972858569631160  0.0259129089056103 F F F
  0.4430870727938650  0.3972858569631160  0.0259129089056103 F F F
  0.7764208540437491  0.3972858569631160  0.0259129089056103 F F F
  0.1097539634186620  0.7306189663383260  0.0259129089056103 F F F
  0.4430870727938800  0.7306189663383260  0.0259129089056103 F F F
  0.7764208540437491  0.7306189663383260  0.0259129089056103 F F F
  0.3319760363355830  0.1750631121715070  0.0877169190436859 F F F
  0.6653091457104739  0.1750631121715070  0.0877169190436859 F F F
  0.9986429269603651  0.1750631121715070  0.0877169190436859 F F F
  0.3319760363355830  0.5083968934213910  0.0877169190436859 F F F
  0.6653091457104739  0.5083968934213910  0.0877169190436859 F F F
  0.9986429269603651  0.5083968934213910  0.0877169190436859 F F F
  0.3319760363355830  0.8417300027966230  0.0877169190436859 F F F
  0.6653091457104739  0.8417300027966230  0.0877169190436859 F F F
  0.9986429269603651  0.8417300027966230  0.0877169190436859 F F F
  0.2208649998769660  0.2861741486298110  0.1472711102089760 F F F
  0.5541981092521771  0.2861741486298110  0.1472711102089760 F F F
  0.8875318905020610  0.2861741486298110  0.1472711102089760 F F F
  0.2208649998769450  0.6195079298797100  0.1472711102089760 F F F
  0.5541981092521771  0.6195079298797100  0.1472711102089760 F F F
  0.8875318905020750  0.6195079298797100  0.1472711102089760 F F F
  0.2208649998769800  0.9528410392549490  0.1472711102089760 F F F
  0.5541981092521980  0.9528410392549490  0.1472711102089760 F F F
  0.8875318905020820  0.9528410392549490  0.1472711102089760 F F F
  0.1097539634186480  0.0639520757132175  0.2096169755884960 F F F
  0.4430870727938650  0.0639520757132175  0.2096169755884960 F F F
  0.7764208540437491  0.0639520757132175  0.2096169755884960 F F F
  0.1097539634186620  0.3972858569631160  0.2096169755884960 F F F
  0.4430870727938650  0.3972858569631160  0.2096169755884960 F F F
  0.7764208540437491  0.3972858569631160  0.2096169755884960 F F F
  0.1097539634186620  0.7306189663383260  0.2096169755884960 F F F
  0.4430870727938800  0.7306189663383260  0.2096169755884960 F F F
  0.7764208540437491  0.7306189663383260  0.2096169755884960 F F F
  0.3326090675176590  0.1753717254267290  0.2715311911427280 T T T
  0.6642481580792610  0.1745055475520590  0.2721109084739840 T T T
  0.9988201318291200  0.1750253038679190  0.2713289163168750 T T T
  0.3322010122562700  0.5084840364644450  0.2719606315172240 T T T
  0.6651222354879490  0.5077168722894290  0.2714240933584410 T T T
  0.9988313590161080  0.5085803187541340  0.2713278085051770 T T T
  0.3325933860908350  0.8420101285031760  0.2715346973327750 T T T
  0.6651308585755090  0.8422030258748170  0.2714233508845680 T T T
  0.9987731834954230  0.8417810698720560  0.2712800221527730 T T T
  0.2207960739092910  0.2849549268623120  0.3339627751976480 T T T
  0.5527526089254520  0.2875886391032410  0.3349810195765950 T T T
  0.8891184797726051  0.2869467985759330  0.3335401183134220 T T T
  0.2207844061294400  0.6205803286376860  0.3339602481164900 T T T
  0.5566561899862850  0.6207123880661810  0.3335480877966720 T T T
  0.8872138956945080  0.6191282129719510  0.3337035219451470 T T T
  0.2213264914409980  0.9530423668207670  0.3337792621198470 T T T
  0.5527309743376780  0.9498923014567781  0.3349842341678690 T T T
  0.8872126368752969  0.9528591033280800  0.3337111806852210 T T T
  0.1091070913368600  0.0625723355342274  0.3932247524705660 T T T
  0.4436759729704680  0.0641975938768766  0.3938347453161770 T T T
  0.7773674583329040  0.0668042661352857  0.3930186376354210 T T T
  0.1118924952014310  0.3982921660984930  0.3935469992630870 T T T
  0.4403589564192810  0.4017029188974990  0.3961441603023840 T T T
  0.7773834138737710  0.3953335121569740  0.3930220269871750 T T T
  0.1090814331608600  0.7312476372679130  0.3932305754921260 T T T
  0.4403425355821040  0.7233739279540790  0.3961421933575480 T T T
  0.7788816669597201  0.7318025879171230  0.3941509247016340 T T T
  0.3304858038706230  0.1737848900156250  0.4554811425388370 T T T
  0.6651515075177410  0.1749391377790060  0.4557387107581480 T T T
  0.9985562222403100  0.1740128519456620  0.4553985181981590 T T T
  0.6708254443188650  0.5065045548478220  0.4544542427264700 T T T
  0.9985267335706570  0.5092164403526380  0.4554035856897160 T T T
  0.3304696552109260  0.8414044292481080  0.4554813527614390 T T T
  0.0006529327853428  0.8426919721208320  0.4560498701350110 T T T
  0.3072133395553110  0.4960127247487590  0.4652708754202100 T T T
  0.6708288619816540  0.8490503805440850  0.4544328242962190 T T T
  0.2208649998769660  0.2861741486298110  0.0564889501496140 F F F
  0.5541981092521771  0.2861741486298110  0.0564889501496140 F F F
  0.8875318905020610  0.2861741486298110  0.0564889501496140 F F F
  0.2208649998769450  0.6195079298797100  0.0564889501496140 F F F
  0.5541981092521771  0.6195079298797100  0.0564889501496140 F F F
  0.8875318905020750  0.6195079298797100  0.0564889501496140 F F F
  0.2208649998769800  0.9528410392549490  0.0564889501496140 F F F
  0.5541981092521980  0.9528410392549490  0.0564889501496140 F F F
  0.8875318905020820  0.9528410392549490  0.0564889501496140 F F F
  0.3319760363355830  0.1750631121715070  0.1787721242724270 F F F
  0.6653091457104739  0.1750631121715070  0.1787721242724270 F F F
  0.9986429269603651  0.1750631121715070  0.1787721242724270 F F F
  0.3319760363355830  0.5083968934213910  0.1787721242724270 F F F
  0.6653091457104739  0.5083968934213910  0.1787721242724270 F F F
  0.9986429269603651  0.5083968934213910  0.1787721242724270 F F F
  0.3319760363355830  0.8417300027966230  0.1787721242724270 F F F
  0.6653091457104739  0.8417300027966230  0.1787721242724270 F F F
  0.9986429269603651  0.8417300027966230  0.1787721242724270 F F F
  0.1099462338934530  0.0638821674908101  0.3019676635284800 T T T
  0.4424780382760790  0.0636186097944176  0.3026890163981550 T T T
  0.7765721112857800  0.0638811820948817  0.3024304503447580 T T T
  0.1100227731962990  0.3973928602949930  0.3024801612786520 T T T
  0.4433060765597220  0.3982273092146400  0.3031536631298550 T T T
  0.7765767262656670  0.3974746995793690  0.3024308461886350 T T T
  0.1099386781862890  0.7308251610594640  0.3019685574856150 T T T
  0.4432965930812860  0.7298330440678030  0.3031561570877630 T T T
  0.7763066107367460  0.7305446320945920  0.3022369291927660 T T T
  0.2171880495278060  0.2808564982267680  0.4249469872136660 T T T
  0.5545695811540060  0.2863853842826810  0.4251597986684460 T T T
  0.8873457187016950  0.2860347455751860  0.4245009291619230 T T T
  0.2171742399971000  0.6210371321385820  0.4249480639551630 T T T
  0.8885994074783380  0.6196161789034920  0.4247969948604440 T T T
  0.2205664382861840  0.9526400019901190  0.4251387151905420 T T T
  0.5545551272980520  0.9528856414196770  0.4251583085912640 T T T
  0.8886063771958420  0.9537138332441800  0.4247871040739210 T T T
  0.5631460895028080  0.6239349182876310  0.4270104576686720 T T T
