H    O    Ce
   1.00000000000000
  11.5611999999999995   0.0000000000000000   0.0000000000000000
  -5.7805999999999997  10.0122929000000003   0.0000000000000000
   0.0000000000000000   0.0000000000000000  26.0129599999999996
H    O    Ce
2  72  36
Selective dynamics
Direct
  0.4994107828361860  0.5922377125641280  0.5100304326108120 T T T
  0.3958200191808030  0.5404036717835010  0.4950116081512020 T T T
  0.1097539616766810  0.0639520793186037  0.0259129045677824 F F F
  0.4430870762602410  0.0639520793186037  0.0259129045677824 F F F
  0.7764208470934550  0.0639520793186037  0.0259129045677824 F F F
  0.1097539616766950  0.3972858501518320  0.0259129045677824 F F F
  0.4430870762602410  0.3972858501518320  0.0259129045677824 F F F
  0.7764208470934550  0.3972858501518320  0.0259129045677824 F F F
  0.1097539616766950  0.7306189647353920  0.0259129045677824 F F F
  0.4430870762602550  0.7306189647353920  0.0259129045677824 F F F
  0.7764208470934550  0.7306189647353920  0.0259129045677824 F F F
  0.3319760380658470  0.1750631175130050  0.0877169151886221 F F F
  0.6653091526490660  0.1750631175130050  0.0877169151886221 F F F
  0.9986429234822860  0.1750631175130050  0.0877169151886221 F F F
  0.3319760380658470  0.5083968883462190  0.0877169151886221 F F F
  0.6653091526490660  0.5083968883462190  0.0877169151886221 F F F
  0.9986429234822860  0.5083968883462190  0.0877169151886221 F F F
  0.3319760380658470  0.8417300029297931  0.0877169151886221 F F F
  0.6653091526490660  0.8417300029297931  0.0877169151886221 F F F
  0.9986429234822860  0.8417300029297931  0.0877169151886221 F F F
  0.2208649998711040  0.2861741557074210  0.1472711154570230 F F F
  0.5541981144546640  0.2861741557074210  0.1472711154570230 F F F
  0.8875318852878710  0.2861741557074210  0.1472711154570230 F F F
  0.2208649998710900  0.6195079265406490  0.1472711154570230 F F F
  0.5541981144546640  0.6195079265406490  0.1472711154570230 F F F
  0.8875318852878850  0.6195079265406490  0.1472711154570230 F F F
  0.2208649998711180  0.9528410411242310  0.1472711154570230 F F F
  0.5541981144546780  0.9528410411242310  0.1472711154570230 F F F
  0.8875318852878920  0.9528410411242310  0.1472711154570230 F F F
  0.1097539616766810  0.0639520793186037  0.2096169744260410 F F F
  0.4430870762602410  0.0639520793186037  0.2096169744260410 F F F
  0.7764208470934550  0.0639520793186037  0.2096169744260410 F F F
  0.1097539616766950  0.3972858501518320  0.2096169744260410 F F F
  0.4430870762602410  0.3972858501518320  0.2096169744260410 F F F
  0.7764208470934550  0.3972858501518320  0.2096169744260410 F F F
  0.1097539616766950  0.7306189647353920  0.2096169744260410 F F F
  0.4430870762602550  0.7306189647353920  0.2096169744260410 F F F
  0.7764208470934550  0.7306189647353920  0.2096169744260410 F F F
  0.3326043494814850  0.1753656479176510  0.2715179637071610 T T T
  0.6642372813535720  0.1745011725843570  0.2720943297701690 T T T
  0.9987994567249600  0.1750004126507180  0.2713304892715630 T T T
  0.3322350415881130  0.5085008849304981  0.2719368428337530 T T T
  0.6651216919189270  0.5077484239914440  0.2714169298204470 T T T
  0.9988106813099050  0.5085851514917010  0.2713294490147080 T T T
  0.3325883419961500  0.8420118430444030  0.2715212874970380 T T T
  0.6651305752997270  0.8421709795558880  0.2714159512818670 T T T
  0.9987761904720780  0.8417826608964560  0.2712828118243000 T T T
  0.2208719432550270  0.2850439253821480  0.3339517508993590 T T T
  0.5527369865991150  0.2875767933823640  0.3349547801050510 T T T
  0.8889456348671350  0.2868606048512350  0.3335070649952460 T T T
  0.2208630113697650  0.6205692583103040  0.3339488469794960 T T T
  0.5566280293690370  0.6206991464391510  0.3335651735328260 T T T
  0.8872144380923220  0.6191608642789670  0.3337036168224120 T T T
  0.2213227121911170  0.9530415874221840  0.3337736049820990 T T T
  0.5527178439402860  0.9498935008116900  0.3349572923907120 T T T
  0.8872123465452330  0.9528253340383800  0.3337112484201940 T T T
  0.1091047475896970  0.0626330452077326  0.3932375113069280 T T T
  0.4436949021874310  0.0642098446034325  0.3937973243248360 T T T
  0.7772821938189050  0.0666518433235268  0.3930238786891850 T T T
  0.1113577912848670  0.3980280498060010  0.3934050622452010 T T T
  0.4406018727803480  0.4018585549632760  0.3960947502944170 T T T
  0.7772959388989520  0.3954016219676220  0.3930267864788210 T T T
  0.1090813803126810  0.7311888866812100  0.3932430553057600 T T T
  0.4405864516597620  0.7234655999840310  0.3960926855484740 T T T
  0.7786798659296890  0.7317024959572720  0.3941239115546580 T T T
  0.3306522871124780  0.1738593448793540  0.4554629430604750 T T T
  0.6650862770440750  0.1749076242192940  0.4557320107049210 T T T
  0.9983909805932361  0.1739663181751610  0.4554118283125060 T T T
  0.6705856937447980  0.5067263741332160  0.4544989051288010 T T T
  0.9983638091624630  0.5091020076215070  0.4554170652742260 T T T
  0.3306395850131520  0.8415007011558020  0.4554629195059120 T T T
  0.0005527119061384  0.8426428348772750  0.4560213791297020 T T T
  0.3068140416838500  0.4958069550979190  0.4647031819684030 T T T
  0.6705884894508710  0.8485912244089990  0.4544783744172280 T T T
  0.2208649998711040  0.2861741557074210  0.0564889477757831 F F F
  0.5541981144546640  0.2861741557074210  0.0564889477757831 F F F
  0.8875318852878710  0.2861741557074210  0.0564889477757831 F F F
  0.2208649998710900  0.6195079265406490  0.0564889477757831 F F F
  0.5541981144546640  0.6195079265406490  0.0564889477757831 F F F
  0.8875318852878850  0.6195079265406490  0.0564889477757831 F F F
  0.2208649998711180  0.9528410411242310  0.0564889477757831 F F F
  0.5541981144546780  0.9528410411242310  0.0564889477757831 F F F
  0.8875318852878920  0.9528410411242310  0.0564889477757831 F F F
  0.3319760380658470  0.1750631175130050  0.1787721301901610 F F F
  0.6653091526490660  0.1750631175130050  0.1787721301901610 F F F
  0.9986429234822860  0.1750631175130050  0.1787721301901610 F F F
  0.3319760380658470  0.5083968883462190  0.1787721301901610 F F F
  0.6653091526490660  0.5083968883462190  0.1787721301901610 F F F
  0.9986429234822860  0.5083968883462190  0.1787721301901610 F F F
  0.3319760380658470  0.8417300029297931  0.1787721301901610 F F F
  0.6653091526490660  0.8417300029297931  0.1787721301901610 F F F
  0.9986429234822860  0.8417300029297931  0.1787721301901610 F F F
  0.1099657982457030  0.0639244521887079  0.3019987554286700 T T T
  0.4424890946557060  0.0636258869388229  0.3026663749011720 T T T
  0.7765541692861790  0.0638715998331065  0.3024213134321910 T T T
  0.1099865788726500  0.3973753674528740  0.3024675616760180 T T T
  0.4432493308060900  0.3981650402857400  0.3031184419249090 T T T
  0.7765578138934049  0.3974661538341170  0.3024217140852410 T T T
  0.1099591899854460  0.7308040783215690  0.3019994626366300 T T T
  0.4432417100950020  0.7298413509900430  0.3031204985021110 T T T
  0.7763620944307160  0.7305720769267910  0.3022061116049460 T T T
  0.2172487390038280  0.2814020740928880  0.4250203794974180 T T T
  0.5544652263836620  0.2863127386822480  0.4251383977705170 T T T
  0.8872910067178380  0.2860088102620750  0.4244780118762750 T T T
  0.2172361889760450  0.6205591105828460  0.4250208515789780 T T T
  0.8886523033099890  0.6196197461197170  0.4247767401830560 T T T
  0.2206022459550920  0.9526609595490290  0.4251096324915050 T T T
  0.5544536047743660  0.9528621412800580  0.4251368680846570 T T T
  0.8886596646394120  0.9537651837551880  0.4247679665732490 T T T
  0.5628875936569810  0.6238089611032790  0.4267328239509780 T T T
