AutoCreatByScript: H C O Ca Ce          
   1.00000000000000     
     7.7074639100000004    0.0000000000000000    0.0000000000000000
     0.0000000000000000    7.7074639100000004    0.0000000000000000
     0.0000000000000000    0.0000000000000000   28.3500000000000014
   H    C    O    Ca   Ce
     4     1    43     1    21
Selective dynamics
Direct
0.0112045038855701	0.8771026037891182	0.5316543797990053	T	T	T	
0.6526986201119181	0.7366014068032876	0.5931568061580048	T	T	T	
0.6664734541851668	0.9665048735293288	0.5951414977345957	T	T	T	
0.8575587185130951	0.837258640497919	0.6045458954919259	T	T	T	
0.7368631390174005	0.848245965021146	0.5835254564514367	T	T	T	
0.4707218781110001	0.1267433621249978	0.0439666126509977	F	F	F	
0.4707218781110001	0.6175124637530018	0.0439666126509977	F	F	F	
0.2200889003029971	0.3721279129389998	0.0444058595140007	F	F	F	
0.7213548559190031	0.3721279129389998	0.0444058595140007	F	F	F	
0.1767245727929989	0.8721279129389998	0.0556367782330014	F	F	F	
0.7647191834290012	0.8721279129389998	0.0556367782330014	F	F	F	
0.9707218781110001	0.1220066518700023	0.1356400863599987	F	F	F	
0.9707218781110001	0.6222491740079974	0.1356400863599987	F	F	F	
0.4707218781110001	0.1182811935459966	0.1411906655259969	F	F	F	
0.4707218781110001	0.625974632332003	0.1411906655259969	F	F	F	
0.7182492702090002	0.3721279129389998	0.1429821293399982	F	F	F	
0.223194486013	0.3721279129389998	0.1429821293399982	F	F	F	
0.223885162400002	0.8721279129389998	0.147455230151003	F	F	F	
0.7175585938219982	0.8721279129389998	0.147455230151003	F	F	F	
0.9707218781110001	0.1229774650790034	0.2374094768929993	F	F	F	
0.9707218781110001	0.6212783607990033	0.2374094768929993	F	F	F	
0.2192750845510005	0.3721279129389998	0.239578198213998	F	F	F	
0.7221686716709996	0.3721279129389998	0.239578198213998	F	F	F	
0.4707218781110001	0.1238098099969989	0.2398257752070023	F	F	F	
0.4707218781110001	0.6204460158810008	0.2398257752070023	F	F	F	
0.21887674237	0.8721279129389998	0.2413681496390012	F	F	F	
0.7225670138520002	0.8721279129389998	0.2413681496390012	F	F	F	
0.2211996774486178	0.8735923294010172	0.3361663494106479	T	T	T	
0.7237984868882559	0.8744693695947412	0.3373788308291567	T	T	T	
0.2217355688240429	0.374324120654419	0.3355572622289729	T	T	T	
0.4715723422535318	0.125546918243289	0.3371880698164404	T	T	T	
0.9721914112789795	0.6241687694035047	0.3379116168576089	T	T	T	
0.4721462332151216	0.6245131207948976	0.3381278869366215	T	T	T	
0.7229440703270107	0.3737342831736162	0.3364182602159665	T	T	T	
0.972522560552092	0.125121951717308	0.3384632508599772	T	T	T	
0.2279380562763617	0.8864931126874797	0.4305747433555012	T	T	T	
0.723056849433373	0.8775876244461346	0.434340143366454	T	T	T	
0.2247766759932807	0.3734420712517437	0.4305529157858517	T	T	T	
0.724398424037004	0.3802715737895981	0.4327476899065719	T	T	T	
0.9690761772857005	0.6275469989935741	0.437313475306115	T	T	T	
0.4741315033294001	0.1295445797142698	0.4350373513240823	T	T	T	
0.4765969224626472	0.6297522498594793	0.4390990135598936	T	T	T	
0.9773761884361359	0.1300831773343297	0.4402075963327508	T	T	T	
0.7718956162594264	0.8526037501424225	0.5348867182041278	T	T	T	
0.1368509613034428	0.891457306679115	0.5261041235893034	T	T	T	
0.460632863974626	0.1062765147380443	0.5352808247214504	T	T	T	
0.2273772781794499	0.3881416843166481	0.5304886574895784	T	T	T	
0.6713137951558992	0.4248322800163494	0.5337872192097745	T	T	T	
0.2175956779244305	0.631954233348207	0.478678716842207	T	T	T	
0.4707218781110001	0.3721279129389998	0.0108776225649976	F	F	F	
0.227933528229002	0.1104791473980029	0.0933765719659974	F	F	F	
0.7135102279929981	0.1104791473980029	0.0933765719659974	F	F	F	
0.227933528229002	0.6337766784799967	0.0933765719659974	F	F	F	
0.7135102279929981	0.6337766784799967	0.0933765719659974	F	F	F	
0.9707218781110001	0.3721279129389998	0.1883090858890029	F	F	F	
0.4707218781110001	0.3721279129389998	0.1905838345849986	F	F	F	
0.9707218781110001	0.8721279129389998	0.1907857983689993	F	F	F	
0.4707218781110001	0.8721279129389998	0.1934945990250014	F	F	F	
0.2193600656850023	0.1239652678969989	0.2883597883599975	F	F	F	
0.7220836905369978	0.1239652678969989	0.2883597883599975	F	F	F	
0.2193600656850023	0.6202905579810007	0.2883597883599975	F	F	F	
0.7220836905369978	0.6202905579810007	0.2883597883599975	F	F	F	
0.4720721514169446	0.8768185584319605	0.3852703160261896	T	T	T	
0.9757337320876975	0.8775463366118089	0.3867404237666169	T	T	T	
0.4708375433143538	0.3769299535680577	0.3855379556229747	T	T	T	
0.9759568478191325	0.375393903643801	0.3865007322602516	T	T	T	
0.7228884119589933	0.6262013585814853	0.4770960555603614	T	T	T	
0.7127891309774989	0.1307062803511987	0.4848553405807404	T	T	T	
0.2317767044452076	0.1284755043331524	0.4805310779205694	T	T	T	
0.4434729177503403	0.3409318694722016	0.5757626685048775	T	T	T	
