AutoCreatByScript: H O Ce               
   1.00000000000000     
     7.7074600000000002    0.0000000000000000    0.0000000000000000
     0.0000000000000000    7.7074600000000002    0.0000000000000000
     0.0000000000000000    0.0000000000000000   22.8999999999999986
   H    O    Ce
     2    34    16
Selective dynamics
Direct
0.6169254098500254	0.1308558427818931	0.5167786255929774	T	T	T	
0.8521442442904599	0.6432034274129635	0.4795523050370516	T	T	T	
0.0578700000000012	0.1278289999999984	0.009641000000002	F	F	F	
0.5578700000000012	0.1278289999999984	0.009641000000002	F	F	F	
0.0578700000000012	0.6278289999999984	0.009641000000002	F	F	F	
0.5578700000000012	0.6278289999999984	0.009641000000002	F	F	F	
0.8078700000000012	0.3778289999999984	0.1081069999999968	F	F	F	
0.3078700000000012	0.3778289999999984	0.1081069999999968	F	F	F	
0.8078700000000012	0.8778289999999984	0.1081069999999968	F	F	F	
0.3078700000000012	0.8778289999999984	0.1081069999999968	F	F	F	
0.5578700000000012	0.1278289999999984	0.1240510000000015	F	F	F	
0.0578700000000012	0.1278289999999984	0.1240510000000015	F	F	F	
0.0578700000000012	0.6278289999999984	0.1240510000000015	F	F	F	
0.5578700000000012	0.6278289999999984	0.1240510000000015	F	F	F	
0.5578700000000012	0.1278289999999984	0.237991000000001	F	F	F	
0.0578700000000012	0.1278289999999984	0.237991000000001	F	F	F	
0.8078700000000012	0.3778289999999984	0.237991000000001	F	F	F	
0.3078700000000012	0.3778289999999984	0.237991000000001	F	F	F	
0.0578700000000012	0.6278289999999984	0.237991000000001	F	F	F	
0.5578700000000012	0.6278289999999984	0.237991000000001	F	F	F	
0.3078700000000012	0.8778289999999984	0.237991000000001	F	F	F	
0.8078700000000012	0.8778289999999984	0.237991000000001	F	F	F	
0.5540225577837546	0.6343792375504752	0.3536056980937409	T	T	T	
0.0589216992303186	0.1272599861711196	0.3545860762703232	T	T	T	
0.313086598239008	0.3736388362365857	0.3556966390285248	T	T	T	
0.5596158404929972	0.1247456967975115	0.3572075259214278	T	T	T	
0.0645698663928992	0.6284392975864187	0.3557896195941065	T	T	T	
0.8103484806472625	0.8784104705829671	0.3625509690724293	T	T	T	
0.8073859119934296	0.3839888158609128	0.365349789777165	T	T	T	
0.3077882039969302	0.8785336071420831	0.3669008815432657	T	T	T	
0.1560299488097029	0.1081055507747256	0.4730192410053587	T	T	T	
0.6295996354303801	0.6614672549348853	0.465985859534727	T	T	T	
0.3123870474939149	0.4518387756007183	0.4657714794993484	T	T	T	
0.5922256521328515	0.1331379628991107	0.4750634889569142	T	T	T	
0.9658398015090667	0.1204792130769424	0.4716018032499532	T	T	T	
0.9801448917833605	0.6373439144920331	0.4719208698884337	T	T	T	
0.3078700000000012	0.1278289999999984	0.0559190000000029	F	F	F	
0.8078700000000012	0.1278289999999984	0.0559190000000029	F	F	F	
0.3078700000000012	0.6278289999999984	0.0559190000000029	F	F	F	
0.8078700000000012	0.6278289999999984	0.0559190000000029	F	F	F	
0.5578700000000012	0.3778289999999984	0.1776169999999979	F	F	F	
0.0578700000000012	0.3778289999999984	0.1776169999999979	F	F	F	
0.0578700000000012	0.8778289999999984	0.1776169999999979	F	F	F	
0.5578700000000012	0.8778289999999984	0.1776169999999979	F	F	F	
0.3092869721050092	0.1282004656539615	0.2981267323388949	T	T	T	
0.3076485130240305	0.6263884809161789	0.2970878721161593	T	T	T	
0.8094090102445223	0.6253218499262324	0.2988208614395222	T	T	T	
0.8080353998945424	0.1325215029110005	0.2993796025871995	T	T	T	
0.0555170338589585	0.8792973970162633	0.4161648912389487	T	T	T	
0.5643512058064789	0.8810963536818639	0.4167449480774256	T	T	T	
0.5467354522588497	0.402101259341086	0.4208888028141158	T	T	T	
0.0796664572627188	0.3776820753341157	0.4215072396035432	T	T	T	
