Ca1 Ce21 H4 C1 O43
1.0
7.707464 0.000000 0.000000
0.000000 7.707464 0.000000
0.000000 0.000000 28.350000
H C O Ca Ce
4 1 43 1 21
Selective dynamics
direct
0.156457 0.833220 0.562435 T T T H
0.650962 0.881355 0.599225 T T T H
0.395372 0.981730 0.552126 T T T H
0.833789 0.713906 0.600317 T T T H
0.752764 0.807456 0.580921 T T T C
0.470722 0.126743 0.043967 F F F O
0.470722 0.617512 0.043967 F F F O
0.220089 0.372128 0.044406 F F F O
0.721355 0.372128 0.044406 F F F O
0.176725 0.872128 0.055637 F F F O
0.764719 0.872128 0.055637 F F F O
0.970722 0.122007 0.135640 F F F O
0.970722 0.622249 0.135640 F F F O
0.470722 0.118281 0.141191 F F F O
0.470722 0.625975 0.141191 F F F O
0.718249 0.372128 0.142982 F F F O
0.223194 0.372128 0.142982 F F F O
0.223885 0.872128 0.147455 F F F O
0.717559 0.872128 0.147455 F F F O
0.970722 0.122977 0.237409 F F F O
0.970722 0.621278 0.237409 F F F O
0.219275 0.372128 0.239578 F F F O
0.722169 0.372128 0.239578 F F F O
0.470722 0.123810 0.239826 F F F O
0.470722 0.620446 0.239826 F F F O
0.218877 0.872128 0.241368 F F F O
0.722567 0.872128 0.241368 F F F O
0.219047 0.871910 0.336188 T T T O
0.720767 0.872130 0.337736 T T T O
0.219722 0.372608 0.335220 T T T O
0.469008 0.122774 0.337828 T T T O
0.970657 0.621480 0.338076 T T T O
0.469544 0.621581 0.338096 T T T O
0.720599 0.371709 0.336261 T T T O
0.971173 0.122768 0.338095 T T T O
0.219671 0.875337 0.431210 T T T O
0.717324 0.870192 0.435290 T T T O
0.219365 0.371474 0.429840 T T T O
0.720093 0.374430 0.432830 T T T O
0.964947 0.620504 0.438025 T T T O
0.471814 0.124031 0.437039 T T T O
0.474249 0.621859 0.438232 T T T O
0.965109 0.123227 0.439082 T T T O
0.788916 0.842787 0.536725 T T T O
0.238269 0.849734 0.536716 T T T O
0.475238 0.087193 0.550797 T T T O
0.242290 0.395340 0.534488 T T T O
0.677757 0.401517 0.533151 T T T O
0.219775 0.621332 0.477964 T T T Ca
0.470722 0.372128 0.010878 F F F Ce
0.227934 0.110479 0.093377 F F F Ce
0.713510 0.110479 0.093377 F F F Ce
0.227934 0.633777 0.093377 F F F Ce
0.713510 0.633777 0.093377 F F F Ce
0.970722 0.372128 0.188309 F F F Ce
0.470722 0.372128 0.190584 F F F Ce
0.970722 0.872128 0.190786 F F F Ce
0.470722 0.872128 0.193495 F F F Ce
0.219360 0.123965 0.288360 F F F Ce
0.722084 0.123965 0.288360 F F F Ce
0.219360 0.620291 0.288360 F F F Ce
0.722084 0.620291 0.288360 F F F Ce
0.466268 0.872302 0.386062 T T T Ce
0.972163 0.873323 0.386893 T T T Ce
0.466397 0.372539 0.385490 T T T Ce
0.972854 0.371066 0.386070 T T T Ce
0.720511 0.617283 0.476549 T T T Ce
0.711486 0.126065 0.483913 T T T Ce
0.222265 0.126841 0.481444 T T T Ce
0.456153 0.363077 0.579098 T T T Ce
