Ce16 H2 O34
1.0
7.707460 0.000000 0.000000
0.000000 7.707460 0.000000
0.000000 0.000000 22.900000
H O Ce
2 34 16
Selective dynamics
direct
0.272205 0.169182 0.489596 T T T H
0.849634 0.633337 0.482065 T T T H
0.057870 0.127829 0.009641 F F F O
0.557870 0.127829 0.009641 F F F O
0.057870 0.627829 0.009641 F F F O
0.557870 0.627829 0.009641 F F F O
0.807870 0.377829 0.108107 F F F O
0.307870 0.377829 0.108107 F F F O
0.807870 0.877829 0.108107 F F F O
0.307870 0.877829 0.108107 F F F O
0.557870 0.127829 0.124051 F F F O
0.057870 0.127829 0.124051 F F F O
0.057870 0.627829 0.124051 F F F O
0.557870 0.627829 0.124051 F F F O
0.557870 0.127829 0.237991 F F F O
0.057870 0.127829 0.237991 F F F O
0.807870 0.377829 0.237991 F F F O
0.307870 0.377829 0.237991 F F F O
0.057870 0.627829 0.237991 F F F O
0.557870 0.627829 0.237991 F F F O
0.307870 0.877829 0.237991 F F F O
0.807870 0.877829 0.237991 F F F O
0.558279 0.629121 0.352803 T T T O
0.060537 0.125617 0.358034 T T T O
0.307047 0.380979 0.356821 T T T O
0.555387 0.128340 0.352132 T T T O
0.064343 0.630820 0.356628 T T T O
0.811502 0.878724 0.363752 T T T O
0.813102 0.378214 0.365046 T T T O
0.309888 0.876175 0.367961 T T T O
0.209763 0.045252 0.494514 T T T O
0.609293 0.638442 0.466407 T T T O
0.295645 0.348019 0.470737 T T T O
0.618111 0.124326 0.463893 T T T O
1.032261 0.102941 0.480609 T T T O
0.974750 0.633051 0.470574 T T T O
0.307870 0.127829 0.055919 F F F Ce
0.807870 0.127829 0.055919 F F F Ce
0.307870 0.627829 0.055919 F F F Ce
0.807870 0.627829 0.055919 F F F Ce
0.557870 0.377829 0.177617 F F F Ce
0.057870 0.377829 0.177617 F F F Ce
0.057870 0.877829 0.177617 F F F Ce
0.557870 0.877829 0.177617 F F F Ce
0.309989 0.129673 0.297854 T T T Ce
0.311729 0.627776 0.297646 T T T Ce
0.806570 0.626119 0.298922 T T T Ce
0.806037 0.130223 0.298714 T T T Ce
0.058087 0.876337 0.415858 T T T Ce
0.565891 0.881770 0.420554 T T T Ce
0.548019 0.378602 0.422800 T T T Ce
0.068937 0.379648 0.417552 T T T Ce
