TS_O3_CO3
1.0
7.707460 0.000000 0.000000
0.000000 7.707460 0.000000
0.000000 0.000000 22.900000
C O Ce
1 29 14
Selective Dynamics
Direct
0.011564 0.099252 0.465979 T T T
0.062985 0.344372 0.300106 T T T
0.321762 0.595079 0.178378 F F F
0.339659 0.595076 0.427253 T T T
0.070845 0.343997 0.173358 F F F
0.319447 0.595079 0.056488 F F F
0.319231 0.595213 0.296959 T T T
0.570845 0.351421 0.057084 F F F
0.579058 0.347355 0.297758 T T T
0.819928 0.595079 0.178378 F F F
0.839520 0.595138 0.415835 T T T
0.570845 0.343051 0.176345 F F F
0.593345 0.349255 0.419342 T T T
0.822243 0.595079 0.056488 F F F
0.821362 0.595122 0.297690 T T T
0.062966 0.846043 0.300148 T T T
0.323254 0.095080 0.181567 F F F
0.208017 0.081947 0.421701 T T T
0.070845 0.846162 0.173358 F F F
0.276386 0.095080 0.070287 F F F
0.324773 0.095139 0.296949 T T T
0.570845 0.838738 0.057084 F F F
0.579192 0.843047 0.297812 T T T
0.818436 0.095080 0.181567 F F F
0.883184 0.094441 0.431971 T T T
0.570845 0.847108 0.176345 F F F
0.593180 0.840897 0.419570 T T T
0.865304 0.095080 0.070287 F F F
0.815410 0.095286 0.300048 T T T
0.043845 0.107717 0.519448 T T T
0.070845 0.595079 0.237991 F F F
0.326536 0.333658 0.117439 F F F
0.329134 0.344675 0.359709 T T T
0.570845 0.595079 0.015681 F F F
0.570845 0.595079 0.237991 F F F
0.589202 0.594876 0.462457 T T T
0.815153 0.333658 0.117439 F F F
0.817092 0.346140 0.355245 T T T
0.070845 0.095080 0.237991 F F F
0.326536 0.856501 0.117439 F F F
0.329052 0.845766 0.359780 T T T
0.570845 0.095080 0.237991 F F F
0.815153 0.856501 0.117439 F F F
0.817180 0.844273 0.355351 T T T
