  SYSTEM = AutoGenerated
  PREC = Accurate
  ISTART = 0
  IBRION = 2
  NSW = 500
  ISIF = 2
  ENCUT = 400
  NELM = 150
  NELMIN = 2
  EDIFF = 1.0e-05
  EDIFFG = -0.05
  GGA = PE
  ISPIN = 2
  LWAVE = .FALSE.
  LCHARG = .FALSE.
  LREAL = Auto
  ALGO = All
  ISMEAR= 0
  SIGMA= 0.05
  AMIX = 0.2
  BMIX = 0.0001
  AMIX_MAG = 0.8
  BMIX_MAG = 0.0001
  LDAU = .TRUE.
  LDAUTYPE = 2
  LDAUL =  -1  3
  LDAUU = 0.0  5.5
  LDAUJ = 0.0  0.5
  LDAUPRINT = 2
  LMAXMIX = 6 
