Ca1 Ce21 H4 C1 O43
1.0
7.707464 0.000000 0.000000
0.000000 7.707464 0.000000
0.000000 0.000000 28.350000
H C O Ca Ce
4 1 43 1 21
Selective dynamics
direct
0.011205 0.877103 0.531654 T T T H
0.652699 0.736601 0.593157 T T T H
0.666473 0.966505 0.595141 T T T H
0.857559 0.837259 0.604546 T T T H
0.736863 0.848246 0.583525 T T T C
0.470722 0.126743 0.043967 F F F O
0.470722 0.617512 0.043967 F F F O
0.220089 0.372128 0.044406 F F F O
0.721355 0.372128 0.044406 F F F O
0.176725 0.872128 0.055637 F F F O
0.764719 0.872128 0.055637 F F F O
0.970722 0.122007 0.135640 F F F O
0.970722 0.622249 0.135640 F F F O
0.470722 0.118281 0.141191 F F F O
0.470722 0.625975 0.141191 F F F O
0.718249 0.372128 0.142982 F F F O
0.223194 0.372128 0.142982 F F F O
0.223885 0.872128 0.147455 F F F O
0.717559 0.872128 0.147455 F F F O
0.970722 0.122977 0.237409 F F F O
0.970722 0.621278 0.237409 F F F O
0.219275 0.372128 0.239578 F F F O
0.722169 0.372128 0.239578 F F F O
0.470722 0.123810 0.239826 F F F O
0.470722 0.620446 0.239826 F F F O
0.218877 0.872128 0.241368 F F F O
0.722567 0.872128 0.241368 F F F O
0.221200 0.873592 0.336166 T T T O
0.723798 0.874469 0.337379 T T T O
0.221736 0.374324 0.335557 T T T O
0.471572 0.125547 0.337188 T T T O
0.972191 0.624169 0.337912 T T T O
0.472146 0.624513 0.338128 T T T O
0.722944 0.373734 0.336418 T T T O
0.972523 0.125122 0.338463 T T T O
0.227938 0.886493 0.430575 T T T O
0.723057 0.877588 0.434340 T T T O
0.224777 0.373442 0.430553 T T T O
0.724398 0.380272 0.432748 T T T O
0.969076 0.627547 0.437313 T T T O
0.474132 0.129545 0.435037 T T T O
0.476597 0.629752 0.439099 T T T O
0.977376 0.130083 0.440208 T T T O
0.771896 0.852604 0.534887 T T T O
0.136851 0.891457 0.526104 T T T O
0.460633 0.106277 0.535281 T T T O
0.227377 0.388142 0.530489 T T T O
0.671314 0.424832 0.533787 T T T O
0.217596 0.631954 0.478679 T T T Ca
0.470722 0.372128 0.010878 F F F Ce
0.227934 0.110479 0.093377 F F F Ce
0.713510 0.110479 0.093377 F F F Ce
0.227934 0.633777 0.093377 F F F Ce
0.713510 0.633777 0.093377 F F F Ce
0.970722 0.372128 0.188309 F F F Ce
0.470722 0.372128 0.190584 F F F Ce
0.970722 0.872128 0.190786 F F F Ce
0.470722 0.872128 0.193495 F F F Ce
0.219360 0.123965 0.288360 F F F Ce
0.722084 0.123965 0.288360 F F F Ce
0.219360 0.620291 0.288360 F F F Ce
0.722084 0.620291 0.288360 F F F Ce
0.472072 0.876819 0.385270 T T T Ce
0.975734 0.877546 0.386740 T T T Ce
0.470838 0.376930 0.385538 T T T Ce
0.975957 0.375394 0.386501 T T T Ce
0.722888 0.626201 0.477096 T T T Ce
0.712789 0.130706 0.484855 T T T Ce
0.231777 0.128476 0.480531 T T T Ce
0.443473 0.340932 0.575763 T T T Ce
