Ce16 H2 O34
1.0
7.707460 0.000000 0.000000
0.000000 7.707460 0.000000
0.000000 0.000000 22.900000
H O Ce
2 34 16
Selective dynamics
direct
0.616925 0.130856 0.516779 T T T H
0.852144 0.643203 0.479552 T T T H
0.057870 0.127829 0.009641 F F F O
0.557870 0.127829 0.009641 F F F O
0.057870 0.627829 0.009641 F F F O
0.557870 0.627829 0.009641 F F F O
0.807870 0.377829 0.108107 F F F O
0.307870 0.377829 0.108107 F F F O
0.807870 0.877829 0.108107 F F F O
0.307870 0.877829 0.108107 F F F O
0.557870 0.127829 0.124051 F F F O
0.057870 0.127829 0.124051 F F F O
0.057870 0.627829 0.124051 F F F O
0.557870 0.627829 0.124051 F F F O
0.557870 0.127829 0.237991 F F F O
0.057870 0.127829 0.237991 F F F O
0.807870 0.377829 0.237991 F F F O
0.307870 0.377829 0.237991 F F F O
0.057870 0.627829 0.237991 F F F O
0.557870 0.627829 0.237991 F F F O
0.307870 0.877829 0.237991 F F F O
0.807870 0.877829 0.237991 F F F O
0.554023 0.634379 0.353606 T T T O
0.058922 0.127260 0.354586 T T T O
0.313087 0.373639 0.355697 T T T O
0.559616 0.124746 0.357208 T T T O
0.064570 0.628439 0.355790 T T T O
0.810348 0.878410 0.362551 T T T O
0.807386 0.383989 0.365350 T T T O
0.307788 0.878534 0.366901 T T T O
0.156030 0.108106 0.473019 T T T O
0.629600 0.661467 0.465986 T T T O
0.312387 0.451839 0.465771 T T T O
0.592226 0.133138 0.475063 T T T O
0.965840 0.120479 0.471602 T T T O
0.980145 0.637344 0.471921 T T T O
0.307870 0.127829 0.055919 F F F Ce
0.807870 0.127829 0.055919 F F F Ce
0.307870 0.627829 0.055919 F F F Ce
0.807870 0.627829 0.055919 F F F Ce
0.557870 0.377829 0.177617 F F F Ce
0.057870 0.377829 0.177617 F F F Ce
0.057870 0.877829 0.177617 F F F Ce
0.557870 0.877829 0.177617 F F F Ce
0.309287 0.128200 0.298127 T T T Ce
0.307649 0.626388 0.297088 T T T Ce
0.809409 0.625322 0.298821 T T T Ce
0.808035 0.132522 0.299380 T T T Ce
0.055517 0.879297 0.416165 T T T Ce
0.564351 0.881096 0.416745 T T T Ce
0.546735 0.402101 0.420889 T T T Ce
0.079666 0.377682 0.421507 T T T Ce
