Ca1 Ce21 H4 C1 O43
1.0
7.707464 0.000000 0.000000
0.000000 7.707464 0.000000
0.000000 0.000000 28.350000
H C O Ca Ce
4 1 43 1 21
Selective dynamics
direct
0.115988 0.858736 0.554210 T T T H
0.631133 0.793116 0.599973 T T T H
0.446324 0.948969 0.571639 T T T H
0.861223 0.758126 0.603365 T T T H
0.756882 0.826456 0.583941 T T T C
0.470818 0.126954 0.043839 F F F O
0.470818 0.617737 0.043838 F F F O
0.220161 0.372370 0.044279 F F F O
0.721447 0.372370 0.044273 F F F O
0.176804 0.872385 0.055519 F F F O
0.764824 0.872384 0.055513 F F F O
0.970841 0.122348 0.135525 F F F O
0.970845 0.622611 0.135519 F F F O
0.470878 0.118636 0.141056 F F F O
0.470874 0.626337 0.141056 F F F O
0.718438 0.372444 0.142847 F F F O
0.223341 0.372439 0.142851 F F F O
0.224037 0.872456 0.147328 F F F O
0.717741 0.872452 0.147329 F F F O
0.970931 0.123488 0.237312 F F F O
0.970936 0.621800 0.237281 F F F O
0.219496 0.372683 0.239418 F F F O
0.722414 0.372702 0.239454 F F F O
0.471070 0.124315 0.239694 F F F O
0.471053 0.620942 0.239669 F F F O
0.219089 0.872743 0.241212 F F F O
0.722796 0.872723 0.241254 F F F O
0.220199 0.873243 0.335954 T T T O
0.722417 0.873664 0.337534 T T T O
0.220759 0.373983 0.335113 T T T O
0.470569 0.124596 0.337429 T T T O
0.971391 0.623429 0.337916 T T T O
0.471016 0.623432 0.337884 T T T O
0.722034 0.373258 0.336192 T T T O
0.971761 0.124440 0.338158 T T T O
0.223418 0.880893 0.430124 T T T O
0.720119 0.873451 0.435341 T T T O
0.221797 0.373700 0.429340 T T T O
0.722557 0.377669 0.432980 T T T O
0.965734 0.624602 0.437654 T T T O
0.475549 0.127043 0.436043 T T T O
0.477058 0.625394 0.438253 T T T O
0.968359 0.126317 0.439521 T T T O
0.780941 0.845657 0.537483 T T T O
0.203360 0.867976 0.529506 T T T O
0.479006 0.108705 0.542606 T T T O
0.234964 0.395203 0.532496 T T T O
0.677898 0.411321 0.533477 T T T O
0.219278 0.624518 0.476903 T T T Ca
0.470794 0.372335 0.010756 F F F Ce
0.228037 0.110757 0.093252 F F F Ce
0.713654 0.110759 0.093245 F F F Ce
0.228049 0.634052 0.093255 F F F Ce
0.713642 0.634048 0.093248 F F F Ce
0.970873 0.372536 0.188187 F F F Ce
0.470954 0.372534 0.190443 F F F Ce
0.970868 0.872586 0.190670 F F F Ce
0.470950 0.872575 0.193359 F F F Ce
0.219656 0.124663 0.288220 F F F Ce
0.722501 0.124624 0.288250 F F F Ce
0.219632 0.620970 0.288181 F F F Ce
0.722488 0.621017 0.288222 F F F Ce
0.469710 0.874760 0.385570 T T T Ce
0.973032 0.876035 0.386798 T T T Ce
0.469206 0.375052 0.385268 T T T Ce
0.973676 0.373405 0.386116 T T T Ce
0.723027 0.622043 0.477088 T T T Ce
0.714737 0.126848 0.484657 T T T Ce
0.227288 0.132177 0.479905 T T T Ce
0.449378 0.362693 0.577645 T T T Ce
