Ce16 H2 O34
1.0
7.707460 0.000000 0.000000
0.000000 7.707460 0.000000
0.000000 0.000000 22.900000
H O Ce
2 34 16
Selective dynamics
direct
0.378591 0.171982 0.510460 T T T H
0.850939 0.635639 0.481266 T T T H
0.057991 0.127817 0.009539 F F F O
0.558005 0.127820 0.009520 F F F O
0.057977 0.627815 0.009508 F F F O
0.558004 0.627828 0.009491 F F F O
0.808134 0.377798 0.107960 F F F O
0.308075 0.377812 0.107941 F F F O
0.808133 0.877862 0.107994 F F F O
0.308064 0.877838 0.107978 F F F O
0.558081 0.127822 0.123909 F F F O
0.058073 0.127809 0.123963 F F F O
0.058032 0.627843 0.123903 F F F O
0.558095 0.627858 0.123858 F F F O
0.558617 0.127885 0.237892 F F F O
0.058569 0.127878 0.238000 F F F O
0.808285 0.377717 0.237867 F F F O
0.308388 0.377738 0.237719 F F F O
0.058206 0.627856 0.237734 F F F O
0.558589 0.627929 0.237663 F F F O
0.308327 0.878015 0.237803 F F F O
0.808306 0.878288 0.237927 F F F O
0.558231 0.632309 0.352476 T T T O
0.062266 0.126607 0.357143 T T T O
0.310427 0.379223 0.355784 T T T O
0.557534 0.127570 0.353768 T T T O
0.064738 0.630465 0.355913 T T T O
0.812162 0.879580 0.363452 T T T O
0.812690 0.380418 0.364961 T T T O
0.310306 0.875985 0.367311 T T T O
0.194617 0.051321 0.484320 T T T O
0.618002 0.648395 0.466124 T T T O
0.303008 0.399608 0.468388 T T T O
0.618079 0.130151 0.466459 T T T O
1.023364 0.120195 0.479371 T T T O
0.977105 0.634028 0.470988 T T T O
0.308001 0.127788 0.055795 F F F Ce
0.808024 0.127797 0.055805 F F F Ce
0.307996 0.627847 0.055769 F F F Ce
0.808016 0.627848 0.055779 F F F Ce
0.558300 0.377766 0.177424 F F F Ce
0.058161 0.377726 0.177481 F F F Ce
0.058164 0.877956 0.177517 F F F Ce
0.558280 0.877962 0.177461 F F F Ce
0.310686 0.129122 0.297840 T T T Ce
0.310937 0.627598 0.296987 T T T Ce
0.808167 0.626243 0.298611 T T T Ce
0.807711 0.131282 0.299030 T T T Ce
0.057507 0.877131 0.415835 T T T Ce
0.566839 0.882161 0.419038 T T T Ce
0.550492 0.389663 0.421032 T T T Ce
0.074423 0.380245 0.418248 T T T Ce
